##TITLE=PROPANOL, 2-METHYL-
##JCAMP-DX=4.24
##DATA TYPE=INFRARED SPECTRUM
##CLASS=COBLENTZ
##ORIGIN=DOW CHEMICAL COMPANY
##OWNER=COBLENTZ SOCIETY
Collection (C) 2018 copyright by the U.S. Secretary of Commerce
on behalf of the United States of America. All rights reserved.
##DATE=1965/10/15
##NAMES=2-methyl-1-propanol
ISOBUTANOL
##CAS REGISTRY NO=78-83-1
##MOLFORM=C4 H10 O
##SOURCE REFERENCE=COBLENTZ NO. 10644
##$NIST SOURCE=COBLENTZ
##$NIST IMAGE=cob10644
##SPECTROMETER/DATA SYSTEM=DOW KBr FOREPRISM-GRATING
##INSTRUMENT PARAMETERS=BLAZED AT 3.5, 12.0, 20.0 MICRON, CHANGED AT 5.0, 7.5, 14.9 MICRON
##STATE=VAPOR (SATURATED)
##PATH LENGTH=12.5 CM
$$ SEE SPECTRUM NO. 10144 FOR "SOLUTION (10%)" STATE AND 10645 FOR "SOLUTION (0.5%)" STATE
##SAMPLING PROCEDURE=TRANSMISSION
##RESOLUTION=4
##DATA PROCESSING=DIGITIZED BY NIST FROM HARD COPY (FROM TWO SEGMENTS)
##XUNITS=1/CM
##YUNITS=TRANSMITTANCE
##XFACTOR=1.000000
##YFACTOR=1
##DELTAX=0.941622
##FIRSTX=457.627
##LASTX=3801.33
##FIRSTY=0.718
##MAXX=3801.33
##MINX=457.627
##MAXY=0.991
##MINY=0.0290387
##NPOINTS=3552
##XYDATA=(X++(Y..Y))
457.627000 0.7180 0.7170 0.7150 0.7150 0.7140
462.335112 0.7120 0.7110 0.7090 0.7090 0.7060
467.043224 0.7050 0.7050 0.7030 0.7020 0.7000
471.751337 0.6990 0.6970 0.6960 0.6920 0.6900
476.459449 0.6900 0.6890 0.6870 0.6870 0.6860
481.167561 0.6860 0.6860 0.6860 0.6840 0.6840
485.875673 0.6830 0.6830 0.6830 0.6830 0.6840
490.583785 0.6860 0.6870 0.6890 0.6900 0.6920
495.291898 0.6920 0.6930 0.6960 0.7000 0.7030
500.000010 0.7050 0.7060 0.7150 0.7210 0.7240
504.708122 0.7250 0.7310 0.7340 0.7360 0.7360
509.416234 0.7360 0.7360 0.7370 0.7370 0.7400
514.124346 0.7400 0.7400 0.7400 0.7410 0.7410
518.832459 0.7410 0.7430 0.7430 0.7410 0.7410
523.540571 0.7410 0.7410 0.7410 0.7410 0.7430
528.248683 0.7430 0.7430 0.7430 0.7430 0.7430
532.956795 0.7430 0.7430 0.7430 0.7430 0.7430
537.664907 0.7430 0.7430 0.7430 0.7430 0.7430
542.373020 0.7410 0.7410 0.7410 0.7410 0.7410
547.081132 0.7410 0.7410 0.7410 0.7430 0.7440
551.789244 0.7440 0.7440 0.7440 0.7440 0.7440
556.497356 0.7440 0.7440 0.7440 0.7440 0.7440
561.205469 0.7430 0.7430 0.7430 0.7430 0.7430
565.913581 0.7410 0.7410 0.7410 0.7410 0.7410
570.621693 0.7410 0.7410 0.7410 0.7410 0.7410
575.329805 0.7410 0.7410 0.7410 0.7410 0.7410
580.037917 0.7410 0.7430 0.7430 0.7430 0.7430
584.746030 0.7430 0.7430 0.7410 0.7410 0.7410
589.454142 0.7410 0.7400 0.7400 0.7400 0.7400
594.162254 0.7400 0.7400 0.7410 0.7410 0.7430
598.870366 0.7430 0.7430 0.7430 0.7430 0.7430
603.578478 0.7460 0.7460 0.7470 0.7490 0.7490
608.286591 0.7500 0.7500 0.7520 0.7530 0.7530
612.994703 0.7530 0.7550 0.7550 0.7560 0.7580
617.702815 0.7580 0.7590 0.7590 0.7590 0.7590
622.410927 0.7590 0.7600 0.7600 0.7600 0.7650
627.119039 0.7650 0.7650 0.7660 0.7660 0.7660
631.827152 0.7660 0.7660 0.7660 0.7660 0.7680
636.535264 0.7690 0.7690 0.7710 0.7710 0.7720
641.243376 0.7710 0.7710 0.7710 0.7710 0.7710
645.951488 0.7710 0.7710 0.7690 0.7690 0.7710
650.659600 0.7710 0.7710 0.7710 0.7710 0.7720
655.367713 0.7720 0.7720 0.7720 0.7720 0.7720
660.075825 0.7720 0.7740 0.7740 0.7740 0.7750
664.783937 0.7750 0.7750 0.7750 0.7750 0.7750
669.492049 0.7750 0.7750 0.7750 0.7740 0.7740
674.200161 0.7740 0.7740 0.7740 0.7740 0.7740
678.908274 0.7750 0.7750 0.7750 0.7750 0.7750
683.616386 0.7770 0.7770 0.7770 0.7780 0.7780
688.324498 0.7770 0.7770 0.7770 0.7780 0.7780
693.032610 0.7780 0.7780 0.7800 0.7820 0.7840
697.740722 0.7850 0.7850 0.7850 0.7840 0.7840
702.448835 0.7840 0.7840 0.7840 0.7850 0.7850
707.156947 0.7850 0.7850 0.7840 0.7820 0.7820
711.865059 0.7820 0.7820 0.7820 0.7820 0.7840
716.573171 0.7840 0.7840 0.7840 0.7840 0.7840
721.281283 0.7840 0.7840 0.7840 0.7840 0.7850
725.989396 0.7850 0.7840 0.7840 0.7840 0.7850
730.697508 0.7850 0.7850 0.7850 0.7870 0.7880
735.405620 0.7900 0.7900 0.7900 0.7880 0.7880
740.113732 0.7870 0.7870 0.7870 0.7870 0.7870
744.821845 0.7870 0.7870 0.7870 0.7870 0.7870
749.529957 0.7870 0.7870 0.7870 0.7880 0.7880
754.238069 0.7880 0.7880 0.7880 0.7900 0.7900
758.946181 0.7900 0.7900 0.7900 0.7900 0.7880
763.654293 0.7880 0.7880 0.7880 0.7880 0.7870
768.362406 0.7870 0.7870 0.7870 0.7870 0.7850
773.070518 0.7850 0.7840 0.7840 0.7820 0.7820
777.778630 0.7810 0.7810 0.7810 0.7810 0.7820
782.486742 0.7820 0.7810 0.7770 0.7750 0.7750
787.194854 0.7740 0.7720 0.7710 0.7690 0.7690
791.902967 0.7680 0.7650 0.7620 0.7590 0.7580
796.611079 0.7560 0.7530 0.7490 0.7460 0.7410
801.319191 0.7410 0.7410 0.7410 0.7400 0.7400
806.027303 0.7340 0.7310 0.7270 0.7240 0.7190
810.735415 0.7190 0.7220 0.7240 0.7250 0.7280
815.443528 0.7300 0.7310 0.7310 0.7310 0.7330
820.151640 0.7340 0.7360 0.7370 0.7400 0.7410
824.859752 0.7430 0.7470 0.7500 0.7520 0.7530
829.567864 0.7580 0.7590 0.7600 0.7630 0.7650
834.275976 0.7660 0.7690 0.7710 0.7710 0.7710
838.984089 0.7720 0.7750 0.7750 0.7770 0.7770
843.692201 0.7770 0.7780 0.7780 0.7780 0.7770
848.400313 0.7770 0.7780 0.7780 0.7780 0.7800
853.108425 0.7800 0.7800 0.7800 0.7800 0.7810
857.816537 0.7810 0.7800 0.7800 0.7800 0.7780
862.524650 0.7780 0.7780 0.7770 0.7750 0.7750
867.232762 0.7740 0.7720 0.7680 0.7660 0.7620
871.940874 0.7590 0.7580 0.7530 0.7470 0.7410
876.648986 0.7400 0.7400 0.7340 0.7270 0.7250
881.357098 0.7240 0.7190 0.7180 0.7180 0.7170
886.065211 0.7140 0.7110 0.7060 0.7000 0.6970
890.773323 0.6950 0.6960 0.6970 0.6970 0.6970
895.481435 0.6960 0.6960 0.6950 0.6930 0.6950
900.189547 0.6960 0.6960 0.6970 0.6970 0.6990
904.897659 0.7020 0.7030 0.7060 0.7080 0.7080
909.605772 0.7090 0.7090 0.7090 0.7080 0.7050
914.313884 0.7020 0.7020 0.6990 0.6950 0.6930
919.021996 0.6900 0.6890 0.6830 0.6780 0.6750
923.730108 0.6710 0.6680 0.6620 0.6610 0.6580
928.438221 0.6550 0.6480 0.6460 0.6430 0.6390
933.146333 0.6340 0.6300 0.6270 0.6270 0.6290
937.854445 0.6330 0.6340 0.6340 0.6330 0.6310
942.562557 0.6290 0.6270 0.6260 0.6230 0.6210
947.270669 0.6200 0.6180 0.6200 0.6240 0.6290
951.978782 0.6310 0.6330 0.6390 0.6400 0.6400
956.686894 0.6390 0.6370 0.6370 0.6390 0.6580
961.395006 0.6590 0.6610 0.6610 0.6610 0.6590
966.103118 0.6590 0.6580 0.6560 0.6560 0.6580
970.811230 0.6580 0.6590 0.6590 0.6580 0.6560
975.519343 0.6530 0.6460 0.6450 0.6390 0.6310
980.227455 0.6080 0.6040 0.6020 0.5900 0.5771
984.935567 0.5740 0.5630 0.5570 0.5520 0.5490
989.643679 0.5450 0.5380 0.5270 0.5240 0.5130
994.351791 0.4910 0.4790 0.4700 0.4690 0.4690
999.059904 0.4670 0.4640 0.4580 0.4540 0.4480
1003.768016 0.4450 0.4420 0.4420 0.4510 0.4600
1008.476128 0.4670 0.4670 0.4570 0.4560 0.4510
1013.184240 0.4420 0.4360 0.4260 0.4170 0.4100
1017.892352 0.4060 0.3980 0.3651 0.3311 0.3240
1022.600465 0.3160 0.2870 0.2630 0.2490 0.2270
1027.308577 0.1781 0.1590 0.1420 0.1121 0.0831
1032.016689 0.0740 0.0710 0.0680 0.0640 0.0610
1036.724801 0.0600 0.0580 0.0570 0.0540 0.0520
1041.432913 0.0510 0.0490 0.0490 0.0480 0.0480
1046.141026 0.0480 0.0480 0.0490 0.0490 0.0510
1050.849138 0.0520 0.0540 0.0550 0.0580 0.0600
1055.557250 0.0630 0.0640 0.0700 0.0790 0.1039
1060.265362 0.1270 0.1460 0.1930 0.1950 0.2310
1064.973474 0.2679 0.3378 0.3629 0.4467 0.4470
1069.681587 0.4570 0.4690 0.5020 0.5350 0.5360
1074.389699 0.5380 0.5430 0.5480 0.5520 0.5550
1079.097811 0.5600 0.5650 0.5710 0.5760 0.5770
1083.805923 0.5770 0.5770 0.5770 0.5770 0.5770
1088.514035 0.5820 0.5870 0.5890 0.5920 0.5950
1093.222148 0.5960 0.5980 0.5990 0.5990 0.6010
1097.930260 0.6010 0.6020 0.6050 0.6070 0.6110
1102.638372 0.6140 0.6150 0.6170 0.6180 0.6180
1107.346484 0.6240 0.6260 0.6270 0.6290 0.6330
1112.054597 0.6360 0.6400 0.6430 0.6450 0.6460
1116.762709 0.6520 0.6550 0.6580 0.6590 0.6640
1121.470821 0.6730 0.6780 0.6780 0.6840 0.6870
1126.178933 0.6900 0.6920 0.6930 0.6930 0.6960
1130.887045 0.6970 0.6990 0.6990 0.7000 0.7000
1135.595158 0.7000 0.7000 0.7000 0.7000 0.7000
1140.303270 0.6990 0.6990 0.6990 0.6990 0.6990
1145.011382 0.6990 0.6990 0.6990 0.6970 0.6970
1149.719494 0.6960 0.6950 0.6930 0.6930 0.6930
1154.427606 0.6920 0.6900 0.6900 0.6890 0.6870
1159.135719 0.6860 0.6830 0.6800 0.6770 0.6750
1163.843831 0.6750 0.6750 0.6750 0.6750 0.6750
1168.551943 0.6750 0.6750 0.6730 0.6730 0.6710
1173.260055 0.6700 0.6670 0.6650 0.6640 0.6620
1177.968167 0.6640 0.6650 0.6680 0.6700 0.6750
1182.676280 0.6780 0.6780 0.6810 0.6860 0.6870
1187.384392 0.6900 0.6920 0.6920 0.6900 0.6900
1192.092504 0.6890 0.6890 0.6870 0.6860 0.6840
1196.800616 0.6830 0.6780 0.6770 0.6730 0.6700
1201.508728 0.6650 0.6610 0.6590 0.6560 0.6520
1206.216841 0.6460 0.6430 0.6400 0.6360 0.6330
1210.924953 0.6180 0.6140 0.6040 0.5920 0.5890
1215.633065 0.5770 0.5740 0.5670 0.5640 0.5570
1220.341177 0.5550 0.5540 0.5510 0.5510 0.5490
1225.049289 0.5490 0.5480 0.5480 0.5480 0.5480
1229.757402 0.5480 0.5480 0.5510 0.5520 0.5520
1234.465514 0.5540 0.5550 0.5570 0.5610 0.5680
1239.173626 0.5740 0.5790 0.5830 0.5850 0.5900
1243.881738 0.5900 0.5990 0.6150 0.6150 0.6230
1248.589850 0.6300 0.6360 0.6430 0.6510 0.6550
1253.297963 0.6580 0.6610 0.6620 0.6680 0.6710
1258.006075 0.6740 0.6750 0.6770 0.6780 0.6800
1262.714187 0.6830 0.6840 0.6860 0.6870 0.6890
1267.422299 0.6900 0.6920 0.6930 0.6950 0.6960
1272.130412 0.6970 0.6990 0.7000 0.7020 0.7020
1276.838524 0.7030 0.7030 0.7050 0.7050 0.7060
1281.546636 0.7060 0.7060 0.7060 0.7060 0.7060
1286.254748 0.7060 0.7060 0.7060 0.7060 0.7060
1290.962860 0.7060 0.7060 0.7060 0.7050 0.7050
1295.670973 0.7050 0.7030 0.7030 0.7030 0.7020
1300.379085 0.7020 0.7020 0.7000 0.7000 0.6990
1305.087197 0.6990 0.6990 0.6970 0.6970 0.6970
1309.795309 0.6960 0.6960 0.6950 0.6930 0.6930
1314.503421 0.6920 0.6920 0.6900 0.6900 0.6890
1319.211534 0.6870 0.6870 0.6860 0.6860 0.6840
1323.919646 0.6830 0.6810 0.6800 0.6770 0.6750
1328.627758 0.6740 0.6730 0.6700 0.6680 0.6670
1333.335870 0.6650 0.6610 0.6590 0.6560 0.6550
1338.043982 0.6490 0.6460 0.6400 0.6340 0.6330
1342.752095 0.6310 0.6300 0.6300 0.6260 0.6200
1347.460207 0.6170 0.6170 0.6110 0.6020 0.6020
1352.168319 0.5920 0.5890 0.5830 0.5740 0.5670
1356.876431 0.5630 0.5550 0.5520 0.5460 0.5390
1361.584543 0.5270 0.5140 0.4940 0.4890 0.4830
1366.292656 0.4800 0.4790 0.4780 0.4750 0.4750
1371.000768 0.4730 0.4730 0.4720 0.4720 0.4700
1375.708880 0.4470 0.4290 0.4260 0.4220 0.4190
1380.416992 0.4170 0.4170 0.4170 0.4170 0.4190
1385.125104 0.4200 0.4220 0.4250 0.4260 0.4280
1389.833217 0.4340 0.4360 0.4380 0.4390 0.4420
1394.541329 0.4440 0.4500 0.4510 0.4560 0.4670
1399.249441 0.4910 0.5020 0.5100 0.5140 0.5140
1403.957553 0.5190 0.5240 0.5290 0.5360 0.5510
1408.665665 0.5740 0.5870 0.5890 0.6040 0.6140
1413.373778 0.6480 0.6490 0.6640 0.6650 0.6840
1418.081890 0.7060 0.7150 0.7240 0.7250 0.7270
1422.790002 0.7310 0.7330 0.7360 0.7390 0.7400
1427.498114 0.7410 0.7430 0.7430 0.7430 0.7410
1432.206226 0.7390 0.7340 0.7300 0.7270 0.7190
1436.914339 0.7170 0.7140 0.7090 0.7050 0.6920
1441.622451 0.6800 0.6680 0.6610 0.6480 0.6330
1446.330563 0.6170 0.6080 0.6020 0.5930 0.5850
1451.038675 0.5760 0.5640 0.5540 0.5460 0.5380
1455.746788 0.5040 0.4950 0.4920 0.4890 0.4800
1460.454900 0.4640 0.4580 0.4480 0.4420 0.4360
1465.163012 0.4290 0.4260 0.4170 0.3980 0.3980
1469.871124 0.4260 0.4290 0.4310 0.4310 0.4280
1474.579236 0.4259 0.4030 0.4030 0.3850 0.3730
1479.287349 0.3730 0.4070 0.4290 0.4799 0.5040
1483.995461 0.5130 0.5160 0.5240 0.5290 0.5510
1488.703573 0.5640 0.5870 0.5890 0.5900 0.6020
1493.411685 0.6170 0.6240 0.6341 0.6750 0.6860
1498.119797 0.7090 0.7110 0.7280 0.7300 0.7410
1502.827910 0.7521 0.7800 0.7800 0.7840 0.7870
1507.536022 0.7880 0.7940 0.7970 0.7970 0.8020
1512.244134 0.8030 0.8040 0.8060 0.8090 0.8100
1516.952246 0.8100 0.8120 0.8120 0.8120 0.8120
1521.660358 0.8130 0.8130 0.8130 0.8130 0.8130
1526.368471 0.8130 0.8150 0.8160 0.8210 0.8220
1531.076583 0.8220 0.8240 0.8250 0.8250 0.8250
1535.784695 0.8250 0.8250 0.8250 0.8250 0.8250
1540.492807 0.8250 0.8260 0.8260 0.8260 0.8310
1545.200919 0.8310 0.8320 0.8320 0.8340 0.8350
1549.909032 0.8350 0.8370 0.8370 0.8380 0.8380
1554.617144 0.8400 0.8400 0.8400 0.8400 0.8400
1559.325256 0.8410 0.8430 0.8430 0.8430 0.8430
1564.033368 0.8430 0.8430 0.8430 0.8430 0.8410
1568.741480 0.8410 0.8430 0.8430 0.8440 0.8440
1573.449593 0.8440 0.8440 0.8440 0.8440 0.8440
1578.157705 0.8460 0.8460 0.8470 0.8470 0.8480
1582.865817 0.8500 0.8500 0.8500 0.8500 0.8500
1587.573929 0.8500 0.8500 0.8500 0.8480 0.8480
1592.282041 0.8480 0.8480 0.8480 0.8480 0.8480
1596.990154 0.8480 0.8480 0.8480 0.8480 0.8500
1601.698266 0.8500 0.8510 0.8510 0.8510 0.8510
1606.406378 0.8510 0.8530 0.8540 0.8560 0.8560
1611.114490 0.8570 0.8570 0.8570 0.8570 0.8570
1615.822602 0.8570 0.8590 0.8630 0.8630 0.8600
1620.530715 0.8600 0.8590 0.8590 0.8590 0.8570
1625.238827 0.8560 0.8560 0.8560 0.8560 0.8530
1629.946939 0.8530 0.8510 0.8510 0.8510 0.8500
1634.655051 0.8500 0.8500 0.8500 0.8500 0.8480
1639.363164 0.8480 0.8470 0.8440 0.8440 0.8410
1644.071276 0.8380 0.8380 0.8370 0.8380 0.8410
1648.779388 0.8410 0.8350 0.8340 0.8340 0.8370
1653.487500 0.8380 0.8400 0.8410 0.8410 0.8430
1658.195612 0.8430 0.8410 0.8410 0.8410 0.8410
1662.903725 0.8410 0.8400 0.8380 0.8380 0.8370
1667.611837 0.8370 0.8380 0.8400 0.8400 0.8380
1672.319949 0.8380 0.8380 0.8380 0.8380 0.8380
1677.028061 0.8380 0.8370 0.8350 0.8350 0.8340
1681.736173 0.8340 0.8350 0.8370 0.8380 0.8380
1686.444286 0.8380 0.8380 0.8400 0.8410 0.8410
1691.152398 0.8410 0.8400 0.8380 0.8370 0.8350
1695.860510 0.8340 0.8340 0.8350 0.8370 0.8380
1700.568622 0.8380 0.8380 0.8400 0.8400 0.8400
1705.276734 0.8410 0.8410 0.8430 0.8410 0.8400
1709.984847 0.8380 0.8380 0.8380 0.8380 0.8380
1714.692959 0.8380 0.8380 0.8400 0.8400 0.8410
1719.401071 0.8400 0.8400 0.8400 0.8400 0.8400
1724.109183 0.8400 0.8400 0.8380 0.8380 0.8380
1728.817295 0.8370 0.8370 0.8370 0.8370 0.8400
1733.525408 0.8400 0.8410 0.8410 0.8410 0.8430
1738.233520 0.8430 0.8430 0.8430 0.8440 0.8440
1742.941632 0.8460 0.8460 0.8460 0.8460 0.8480
1747.649744 0.8500 0.8500 0.8510 0.8510 0.8530
1752.357856 0.8530 0.8530 0.8530 0.8530 0.8530
1757.065969 0.8530 0.8530 0.8540 0.8560 0.8570
1761.774081 0.8590 0.8600 0.8600 0.8570 0.8560
1766.482193 0.8560 0.8560 0.8570 0.8570 0.8570
1771.190305 0.8590 0.8590 0.8590 0.8590 0.8590
1775.898417 0.8590 0.8590 0.8590 0.8590 0.8590
1780.606530 0.8600 0.8600 0.8620 0.8620 0.8600
1785.314642 0.8590 0.8570 0.8570 0.8570 0.8570
1790.022754 0.8590 0.8600 0.8600 0.8620 0.8620
1794.730866 0.8600 0.8600 0.8600 0.8600 0.8620
1799.438978 0.8650 0.8630 0.8630 0.8630 0.8630
1804.147091 0.8630 0.8620 0.8620 0.8620 0.8620
1808.855203 0.8620 0.8630 0.8630 0.8630 0.8630
1813.563315 0.8620 0.8620 0.8620 0.8620 0.8620
1818.271427 0.8620 0.8620 0.8630 0.8630 0.8630
1822.979540 0.8630 0.8620 0.8600 0.8600 0.8600
1827.687652 0.8600 0.8620 0.8630 0.8650 0.8660
1832.395764 0.8660 0.8650 0.8650 0.8650 0.8650
1837.103876 0.8650 0.8650 0.8630 0.8620 0.8620
1841.811988 0.8620 0.8630 0.8630 0.8630 0.8630
1846.520101 0.8650 0.8650 0.8650 0.8660 0.8660
1851.228213 0.8680 0.8660 0.8660 0.8660 0.8660
1855.936325 0.8660 0.8660 0.8660 0.8660 0.8660
1860.644437 0.8660 0.8660 0.8660 0.8660 0.8660
1865.352549 0.8660 0.8660 0.8680 0.8680 0.8680
1870.060662 0.8680 0.8680 0.8680 0.8690 0.8690
1874.768774 0.8700 0.8700 0.8700 0.8700 0.8700
1879.476886 0.8690 0.8690 0.8690 0.8700 0.8700
1884.184998 0.8700 0.8700 0.8700 0.8700 0.8700
1888.893110 0.8700 0.8700 0.8700 0.8690 0.8690
1893.601223 0.8680 0.8690 0.8690 0.8690 0.8700
1898.309335 0.8700 0.8720 0.8720 0.8700 0.8690
1903.017447 0.8690 0.8690 0.8690 0.8680 0.8690
1907.725559 0.8690 0.8690 0.8700 0.8700 0.8700
1912.433671 0.8700 0.8700 0.8700 0.8700 0.8700
1917.141784 0.8700 0.8700 0.8700 0.8700 0.8700
1921.849896 0.8700 0.8700 0.8700 0.8700 0.8690
1926.558008 0.8690 0.8690 0.8690 0.8680 0.8680
1931.266120 0.8690 0.8690 0.8690 0.8690 0.8690
1935.974232 0.8680 0.8680 0.8660 0.8680 0.8690
1940.682345 0.8690 0.8690 0.8690 0.8690 0.8690
1945.390457 0.8690 0.8690 0.8690 0.8690 0.8690
1950.098569 0.8700 0.8700 0.8700 0.8700 0.8700
1954.806681 0.8700 0.8690 0.8690 0.8690 0.8690
1959.514793 0.8700 0.8700 0.8700 0.8700 0.8700
1964.222906 0.8700 0.8700 0.8700 0.8700 0.8700
1968.931018 0.8690 0.8690 0.8690 0.8690 0.8690
1973.639130 0.8690 0.8690 0.8690 0.8690 0.8690
1978.347242 0.8690 0.8690 0.8690 0.8690 0.8690
1983.055354 0.8690 0.8690 0.8690 0.8690 0.8690
1987.763467 0.8690 0.8700 0.8700 0.8700 0.8700
1992.471579 0.8700 0.8700 0.8700 0.8700 0.8720
1997.179691 0.8720 0.8720 0.8720 0.8730 0.8730
2001.887803 0.8730 0.8730 0.8730 0.8730 0.8730
2006.595916 0.8740 0.8750 0.8755 0.8760 0.8760
2011.304028 0.8760 0.8760 0.8760 0.8770 0.8780
2016.012140 0.8785 0.8790 0.8790 0.8790 0.8790
2020.720252 0.8790 0.8790 0.8790 0.8800 0.8810
2025.428364 0.8810 0.8810 0.8810 0.8810 0.8815
2030.136477 0.8820 0.8829 0.8839 0.8840 0.8840
2034.844589 0.8840 0.8840 0.8831 0.8821 0.8815
2039.552701 0.8810 0.8810 0.8810 0.8810 0.8810
2044.260813 0.8810 0.8810 0.8810 0.8810 0.8810
2048.968925 0.8810 0.8810 0.8810 0.8814 0.8819
2053.677038 0.8820 0.8820 0.8816 0.8811 0.8810
2058.385150 0.8810 0.8797 0.8782 0.8767 0.8752
2063.093262 0.8741 0.8731 0.8726 0.8721 0.8711
2067.801374 0.8701 0.8696 0.8691 0.8690 0.8690
2072.509486 0.8690 0.8690 0.8686 0.8681 0.8680
2077.217599 0.8680 0.8680 0.8680 0.8672 0.8662
2081.925711 0.8656 0.8651 0.8650 0.8650 0.8650
2086.633823 0.8650 0.8654 0.8659 0.8668 0.8678
2091.341935 0.8684 0.8689 0.8702 0.8717 0.8736
2096.050047 0.8756 0.8772 0.8787 0.8802 0.8817
2100.758160 0.8828 0.8838 0.8844 0.8849 0.8858
2105.466272 0.8868 0.8874 0.8879 0.8880 0.8880
2110.174384 0.8888 0.8898 0.8900 0.8900 0.8900
2114.882496 0.8900 0.8904 0.8909 0.8910 0.8910
2119.590608 0.8910 0.8910 0.8910 0.8910 0.8910
2124.298721 0.8910 0.8914 0.8919 0.8920 0.8920
2129.006833 0.8920 0.8920 0.8920 0.8920 0.8920
2133.714945 0.8920 0.8920 0.8920 0.8927 0.8937
2138.423057 0.8940 0.8940 0.8944 0.8949 0.8950
2143.131169 0.8950 0.8950 0.8950 0.8957 0.8967
2147.839282 0.8970 0.8970 0.8970 0.8970 0.8970
2152.547394 0.8970 0.8970 0.8970 0.8970 0.8970
2157.255506 0.8970 0.8970 0.8973 0.8978 0.8980
2161.963618 0.8980 0.8980 0.8980 0.8977 0.8972
2166.671730 0.8970 0.8970 0.8970 0.8970 0.8970
2171.379843 0.8970 0.8970 0.8970 0.8970 0.8970
2176.087955 0.8970 0.8970 0.8970 0.8970 0.8970
2180.796067 0.8970 0.8970 0.8970 0.8973 0.8978
2185.504179 0.8977 0.8972 0.8970 0.8970 0.8970
2190.212292 0.8970 0.8964 0.8954 0.8950 0.8950
2194.920404 0.8950 0.8950 0.8956 0.8966 0.8970
2199.628516 0.8970 0.8973 0.8978 0.8980 0.8980
2204.336628 0.8986 0.8996 0.9000 0.9000 0.9000
2209.044740 0.9000 0.9000 0.9000 0.9000 0.9000
2213.752853 0.9003 0.9008 0.9010 0.9010 0.9010
2218.460965 0.9010 0.9010 0.9010 0.9010 0.9010
2223.169077 0.9015 0.9025 0.9030 0.9030 0.9024
2227.877189 0.9015 0.9007 0.9002 0.9000 0.9000
2232.585301 0.9000 0.9000 0.9000 0.9000 0.9003
2237.293414 0.9008 0.9015 0.9025 0.9030 0.9030
2242.001526 0.9030 0.9030 0.9030 0.9030 0.9030
2246.709638 0.9030 0.9030 0.9030 0.9030 0.9030
2251.417750 0.9030 0.9030 0.9025 0.9015 0.9010
2256.125862 0.9010 0.9010 0.9010 0.9010 0.9010
2260.833975 0.9010 0.9010 0.9010 0.9010 0.9010
2265.542087 0.9010 0.9010 0.9010 0.9008 0.9003
2270.250199 0.9000 0.9000 0.9000 0.9000 0.9000
2274.958311 0.9000 0.9000 0.9000 0.9002 0.9007
2279.666423 0.9010 0.9010 0.9014 0.9024 0.9030
2284.374536 0.9030 0.9030 0.9030 0.9026 0.9016
2289.082648 0.9010 0.9010 0.9008 0.9003 0.9000
2293.790760 0.9000 0.9000 0.9000 0.9000 0.9000
2298.498872 0.9000 0.9000 0.9002 0.9007 0.9014
2303.206984 0.9024 0.9036 0.9051 0.9066 0.9081
2307.915097 0.9096 0.9111 0.9120 0.9120 0.9122
2312.623209 0.9127 0.9130 0.9130 0.9130 0.9130
2317.331321 0.9132 0.9137 0.9140 0.9140 0.9140
2322.039433 0.9140 0.9140 0.9140 0.9144 0.9153
2326.747545 0.9160 0.9160 0.9160 0.9160 0.9160
2331.455658 0.9160 0.9160 0.9160 0.9160 0.9160
2336.163770 0.9157 0.9147 0.9140 0.9140 0.9140
2340.871882 0.9140 0.9140 0.9140 0.9140 0.9140
2345.579994 0.9140 0.9140 0.9138 0.9134 0.9130
2350.288106 0.9130 0.9130 0.9130 0.9130 0.9130
2354.996219 0.9130 0.9130 0.9129 0.9124 0.9120
2359.704331 0.9120 0.9120 0.9120 0.9117 0.9107
2364.412443 0.9100 0.9100 0.9100 0.9100 0.9100
2369.120555 0.9100 0.9100 0.9100 0.9100 0.9100
2373.828668 0.9100 0.9100 0.9100 0.9100 0.9100
2378.536780 0.9100 0.9100 0.9100 0.9100 0.9100
2383.244892 0.9099 0.9094 0.9090 0.9090 0.9090
2387.953004 0.9090 0.9090 0.9090 0.9090 0.9090
2392.661116 0.9090 0.9090 0.9090 0.9090 0.9090
2397.369229 0.9090 0.9090 0.9090 0.9088 0.9078
2402.077341 0.9070 0.9070 0.9070 0.9070 0.9070
2406.785453 0.9070 0.9069 0.9064 0.9060 0.9060
2411.493565 0.9061 0.9066 0.9070 0.9070 0.9070
2416.201677 0.9070 0.9070 0.9070 0.9070 0.9070
2420.909790 0.9070 0.9070 0.9070 0.9070 0.9070
2425.617902 0.9070 0.9070 0.9070 0.9070 0.9070
2430.326014 0.9070 0.9070 0.9070 0.9070 0.9070
2435.034126 0.9070 0.9070 0.9070 0.9071 0.9081
2439.742238 0.9090 0.9090 0.9091 0.9096 0.9100
2444.450351 0.9100 0.9101 0.9111 0.9120 0.9120
2449.158463 0.9120 0.9120 0.9120 0.9120 0.9120
2453.866575 0.9120 0.9120 0.9125 0.9130 0.9130
2458.574687 0.9130 0.9130 0.9130 0.9130 0.9130
2463.282799 0.9130 0.9130 0.9135 0.9140 0.9140
2467.990912 0.9140 0.9140 0.9140 0.9140 0.9141
2472.699024 0.9151 0.9160 0.9160 0.9160 0.9160
2477.407136 0.9160 0.9160 0.9160 0.9165 0.9170
2482.115248 0.9170 0.9170 0.9170 0.9170 0.9170
2486.823360 0.9170 0.9180 0.9190 0.9190 0.9190
2491.531473 0.9190 0.9190 0.9190 0.9190 0.9195
2496.239585 0.9200 0.9210 0.9220 0.9220 0.9220
2500.947697 0.9225 0.9230 0.9230 0.9230 0.9240
2505.655809 0.9250 0.9250 0.9250 0.9250 0.9250
2510.363921 0.9250 0.9250 0.9240 0.9230 0.9230
2515.072034 0.9230 0.9230 0.9230 0.9225 0.9220
2519.780146 0.9220 0.9220 0.9220 0.9220 0.9220
2524.488258 0.9220 0.9220 0.9220 0.9220 0.9220
2529.196370 0.9220 0.9220 0.9220 0.9220 0.9220
2533.904483 0.9220 0.9220 0.9220 0.9220 0.9220
2538.612595 0.9225 0.9230 0.9230 0.9230 0.9225
2543.320707 0.9220 0.9220 0.9220 0.9220 0.9220
2548.028819 0.9220 0.9220 0.9211 0.9201 0.9200
2552.736931 0.9200 0.9200 0.9200 0.9200 0.9200
2557.445044 0.9196 0.9191 0.9190 0.9190 0.9190
2562.153156 0.9190 0.9190 0.9190 0.9181 0.9171
2566.861268 0.9166 0.9161 0.9160 0.9160 0.9160
2571.569380 0.9160 0.9160 0.9160 0.9160 0.9160
2576.277492 0.9152 0.9142 0.9140 0.9140 0.9136
2580.985605 0.9131 0.9130 0.9130 0.9126 0.9121
2585.693717 0.9120 0.9120 0.9120 0.9120 0.9120
2590.401829 0.9120 0.9120 0.9120 0.9124 0.9129
2595.109941 0.9134 0.9139 0.9140 0.9140 0.9148
2599.818053 0.9158 0.9160 0.9160 0.9152 0.9142
2604.526166 0.9140 0.9140 0.9140 0.9140 0.9140
2609.234278 0.9140 0.9136 0.9131 0.9130 0.9130
2613.942390 0.9130 0.9130 0.9126 0.9121 0.9120
2618.650502 0.9120 0.9120 0.9120 0.9112 0.9102
2623.358614 0.9100 0.9100 0.9100 0.9100 0.9096
2628.066727 0.9091 0.9090 0.9090 0.9090 0.9090
2632.774839 0.9083 0.9073 0.9066 0.9061 0.9060
2637.482951 0.9060 0.9060 0.9060 0.9060 0.9060
2642.191063 0.9053 0.9043 0.9040 0.9040 0.9040
2646.899175 0.9040 0.9040 0.9040 0.9037 0.9032
2651.607288 0.9030 0.9030 0.9030 0.9030 0.9030
2656.315400 0.9030 0.9030 0.9030 0.9030 0.9030
2661.023512 0.9030 0.9030 0.9030 0.9030 0.9030
2665.731624 0.9030 0.9030 0.9030 0.9033 0.9038
2670.439736 0.9040 0.9040 0.9040 0.9040 0.9040
2675.147849 0.9040 0.9040 0.9040 0.9037 0.9032
2679.855961 0.9024 0.9014 0.9010 0.9010 0.9010
2684.564073 0.9010 0.9010 0.9010 0.9007 0.9002
2689.272185 0.9000 0.9000 0.8994 0.8984 0.8980
2693.980297 0.8980 0.8977 0.8972 0.8964 0.8954
2698.688410 0.8941 0.8926 0.8917 0.8912 0.8907
2703.396522 0.8902 0.8894 0.8884 0.8868 0.8848
2708.104634 0.8825 0.8801 0.8781 0.8766 0.8749
2712.812746 0.8729 0.8714 0.8704 0.8680 0.8645
2717.520859 0.8613 0.8583 0.8553 0.8523 0.8502
2722.228971 0.8487 0.8480 0.8480 0.8444 0.8380
2726.937083 0.8339 0.8319 0.8297 0.8272 0.8255
2731.645195 0.8245 0.8240 0.8240 0.8235 0.8225
2736.353307 0.8220 0.8220 0.8220 0.8220 0.8220
2741.061420 0.8220 0.8220 0.8220 0.8220 0.8220
2745.769532 0.8225 0.8235 0.8240 0.8240 0.8242
2750.477644 0.8247 0.8250 0.8250 0.8248 0.8243
2755.185756 0.8235 0.8225 0.8213 0.8198 0.8180
2759.893868 0.8160 0.8145 0.8135 0.8128 0.8123
2764.601981 0.8120 0.8120 0.8115 0.8105 0.8091
2769.310093 0.8071 0.8055 0.8046 0.8038 0.8033
2774.018205 0.8030 0.8030 0.8028 0.8023 0.8016
2778.726317 0.8006 0.7998 0.7993 0.7986 0.7976
2783.434429 0.7968 0.7963 0.7960 0.7960 0.7956
2788.142542 0.7946 0.7938 0.7933 0.7926 0.7916
2792.850654 0.7904 0.7889 0.7872 0.7852 0.7832
2797.558766 0.7812 0.7800 0.7800 0.7794 0.7779
2802.266878 0.7766 0.7756 0.7748 0.7743 0.7734
2806.974990 0.7719 0.7701 0.7676 0.7654 0.7639
2811.683103 0.7624 0.7609 0.7598 0.7593 0.7588
2816.391215 0.7583 0.7569 0.7539 0.7506 0.7466
2821.099327 0.7435 0.7420 0.7408 0.7403 0.7398
2825.807439 0.7393 0.7366 0.7297 0.7222 0.7136
2830.515551 0.7075 0.7060 0.7033 0.6983 0.6947
2835.223664 0.6937 0.6904 0.6824 0.6725 0.6585
2839.931776 0.6462 0.6372 0.6308 0.6303 0.6251
2844.639888 0.6092 0.5929 0.5760 0.5612 0.5516
2849.348000 0.5421 0.5326 0.5195 0.4981 0.4811
2854.056112 0.4746 0.4655 0.4500 0.4344 0.4185
2858.764225 0.3974 0.3630 0.3366 0.3316 0.3264
2863.472337 0.3204 0.3142 0.3072 0.2813 0.2007
2868.180449 0.1398 0.1319 0.1249 0.1210 0.1176
2872.888561 0.1161 0.1150 0.1150 0.1149 0.1144
2877.596673 0.1140 0.1140 0.1140 0.1140 0.1140
2882.304786 0.1140 0.1141 0.1146 0.1153 0.1168
2887.012898 0.1182 0.1192 0.1203 0.1218 0.1231
2891.721010 0.1236 0.1243 0.1258 0.1273 0.1288
2896.429122 0.1304 0.1324 0.1343 0.1358 0.1372
2901.137235 0.1382 0.1391 0.1396 0.1400 0.1400
2905.845347 0.1400 0.1400 0.1396 0.1376 0.1358
2910.553459 0.1348 0.1339 0.1334 0.1328 0.1318
2915.261571 0.1309 0.1304 0.1297 0.1277 0.1258
2919.969683 0.1248 0.1239 0.1234 0.1226 0.1201
2924.677796 0.1179 0.1174 0.1168 0.1158 0.1147
2929.385908 0.1127 0.1108 0.1093 0.1078 0.1063
2934.094020 0.1048 0.1033 0.1018 0.0998 0.0975
2938.802132 0.0935 0.0898 0.0878 0.0856 0.0821
2943.510244 0.0786 0.0756 0.0727 0.0702 0.0675
2948.218357 0.0625 0.0578 0.0563 0.0548 0.0528
2952.926469 0.0508 0.0483 0.0459 0.0444 0.0427
2957.634581 0.0392 0.0359 0.0344 0.0329 0.0314
2962.342693 0.0300 0.0295 0.0290 0.0295 0.0301
2967.050805 0.0311 0.0321 0.0336 0.0350 0.0355
2971.758918 0.0362 0.0392 0.0421 0.0436 0.0450
2976.467030 0.0455 0.0461 0.0476 0.0491 0.0516
2981.175142 0.0543 0.0597 0.0653 0.0728 0.0805
2985.883254 0.0960 0.1117 0.1382 0.1652 0.2175
2990.591366 0.2692 0.2786 0.2882 0.3102 0.3321
2995.299479 0.3565 0.3810 0.4114 0.4418 0.5000
3000.007591 0.5583 0.5987 0.6391 0.6790 0.7189
3004.715703 0.7230 0.7270 0.7517 0.7766 0.7976
3009.423815 0.8186 0.8356 0.8525 0.8656 0.8786
3014.131927 0.8848 0.8908 0.8968 0.9027 0.9064
3018.840040 0.9099 0.9110 0.9120 0.9139 0.9159
3023.548152 0.9165 0.9170 0.9184 0.9199 0.9209
3028.256264 0.9219 0.9234 0.9249 0.9255 0.9260
3032.964376 0.9274 0.9289 0.9299 0.9309 0.9310
3037.672488 0.9310 0.9310 0.9310 0.9315 0.9320
3042.380601 0.9320 0.9320 0.9320 0.9320 0.9329
3047.088713 0.9339 0.9340 0.9340 0.9340 0.9340
3051.796825 0.9344 0.9349 0.9350 0.9350 0.9350
3056.504937 0.9350 0.9350 0.9350 0.9350 0.9350
3061.213049 0.9354 0.9359 0.9360 0.9360 0.9360
3065.921162 0.9360 0.9360 0.9360 0.9360 0.9360
3070.629274 0.9360 0.9360 0.9360 0.9360 0.9360
3075.337386 0.9360 0.9360 0.9360 0.9360 0.9360
3080.045498 0.9360 0.9360 0.9360 0.9360 0.9360
3084.753611 0.9360 0.9360 0.9360 0.9356 0.9351
3089.461723 0.9354 0.9359 0.9360 0.9360 0.9360
3094.169835 0.9360 0.9360 0.9360 0.9360 0.9360
3098.877947 0.9368 0.9378 0.9380 0.9380 0.9380
3103.586059 0.9380 0.9384 0.9389 0.9390 0.9390
3108.294172 0.9390 0.9390 0.9398 0.9408 0.9410
3113.002284 0.9410 0.9410 0.9410 0.9414 0.9419
3117.710396 0.9420 0.9420 0.9420 0.9420 0.9420
3122.418508 0.9420 0.9427 0.9437 0.9440 0.9440
3127.126620 0.9433 0.9423 0.9420 0.9420 0.9416
3131.834733 0.9411 0.9403 0.9393 0.9390 0.9390
3136.542845 0.9390 0.9390 0.9390 0.9390 0.9386
3141.250957 0.9381 0.9380 0.9380 0.9373 0.9363
3145.959069 0.9360 0.9360 0.9360 0.9360 0.9357
3150.667181 0.9351 0.9350 0.9350 0.9346 0.9342
3155.375294 0.9333 0.9323 0.9320 0.9320 0.9317
3160.083406 0.9312 0.9310 0.9310 0.9310 0.9310
3164.791518 0.9303 0.9293 0.9287 0.9282 0.9280
3169.499630 0.9280 0.9273 0.9263 0.9257 0.9252
3174.207742 0.9243 0.9233 0.9230 0.9230 0.9230
3178.915855 0.9230 0.9236 0.9246 0.9253 0.9258
3183.623967 0.9260 0.9260 0.9266 0.9276 0.9283
3188.332079 0.9288 0.9296 0.9306 0.9313 0.9318
3193.040191 0.9320 0.9320 0.9326 0.9336 0.9340
3197.748303 0.9340 0.9343 0.9348 0.9353 0.9358
3202.456416 0.9366 0.9376 0.9383 0.9388 0.9396
3207.164528 0.9406 0.9413 0.9418 0.9426 0.9436
3211.872640 0.9443 0.9448 0.9456 0.9466 0.9473
3216.580752 0.9478 0.9486 0.9496 0.9503 0.9508
3221.288864 0.9516 0.9525 0.9530 0.9530 0.9533
3225.996977 0.9538 0.9546 0.9556 0.9563 0.9568
3230.705089 0.9570 0.9570 0.9570 0.9570 0.9573
3235.413201 0.9578 0.9580 0.9580 0.9580 0.9580
3240.121313 0.9580 0.9580 0.9580 0.9580 0.9580
3244.829425 0.9580 0.9580 0.9580 0.9585 0.9595
3249.537538 0.9600 0.9600 0.9603 0.9607 0.9610
3254.245650 0.9610 0.9610 0.9610 0.9615 0.9625
3258.953762 0.9630 0.9630 0.9625 0.9615 0.9610
3263.661874 0.9610 0.9610 0.9610 0.9610 0.9610
3268.369987 0.9610 0.9610 0.9615 0.9625 0.9630
3273.078099 0.9630 0.9630 0.9630 0.9630 0.9630
3277.786211 0.9630 0.9630 0.9630 0.9630 0.9626
3282.494323 0.9616 0.9610 0.9610 0.9610 0.9610
3287.202435 0.9614 0.9624 0.9630 0.9630 0.9630
3291.910548 0.9630 0.9630 0.9630 0.9630 0.9630
3296.618660 0.9626 0.9616 0.9610 0.9610 0.9610
3301.326772 0.9610 0.9604 0.9589 0.9580 0.9580
3306.034884 0.9580 0.9580 0.9580 0.9580 0.9578
3310.742996 0.9573 0.9570 0.9570 0.9570 0.9570
3315.451109 0.9568 0.9563 0.9560 0.9560 0.9560
3320.159221 0.9560 0.9560 0.9560 0.9560 0.9560
3324.867333 0.9560 0.9560 0.9562 0.9567 0.9570
3329.575445 0.9570 0.9570 0.9570 0.9572 0.9577
3334.283557 0.9580 0.9580 0.9580 0.9580 0.9580
3338.991670 0.9580 0.9583 0.9593 0.9600 0.9600
3343.699782 0.9600 0.9600 0.9600 0.9600 0.9600
3348.407894 0.9600 0.9601 0.9606 0.9613 0.9623
3353.116006 0.9630 0.9630 0.9630 0.9630 0.9631
3357.824118 0.9636 0.9640 0.9640 0.9640 0.9640
3362.532231 0.9640 0.9640 0.9640 0.9640 0.9640
3367.240343 0.9640 0.9640 0.9640 0.9643 0.9653
3371.948455 0.9660 0.9660 0.9660 0.9660 0.9661
3376.656567 0.9666 0.9670 0.9670 0.9672 0.9682
3381.364679 0.9690 0.9690 0.9690 0.9690 0.9690
3386.072792 0.9690 0.9690 0.9690 0.9690 0.9690
3390.780904 0.9690 0.9690 0.9688 0.9678 0.9670
3395.489016 0.9670 0.9672 0.9682 0.9690 0.9690
3400.197128 0.9690 0.9690 0.9690 0.9690 0.9690
3404.905240 0.9690 0.9688 0.9678 0.9670 0.9670
3409.613353 0.9670 0.9670 0.9672 0.9682 0.9690
3414.321465 0.9690 0.9690 0.9690 0.9691 0.9696
3419.029577 0.9702 0.9712 0.9720 0.9720 0.9720
3423.737689 0.9720 0.9720 0.9720 0.9720 0.9720
3428.445801 0.9721 0.9726 0.9730 0.9730 0.9730
3433.153914 0.9730 0.9730 0.9730 0.9730 0.9730
3437.862026 0.9730 0.9730 0.9730 0.9730 0.9730
3442.570138 0.9730 0.9730 0.9730 0.9729 0.9724
3447.278250 0.9720 0.9720 0.9719 0.9709 0.9700
3451.986363 0.9700 0.9700 0.9700 0.9700 0.9695
3456.694475 0.9690 0.9690 0.9690 0.9690 0.9690
3461.402587 0.9690 0.9690 0.9695 0.9700 0.9700
3466.110699 0.9701 0.9711 0.9720 0.9720 0.9719
3470.818811 0.9709 0.9700 0.9700 0.9700 0.9695
3475.526924 0.9690 0.9690 0.9690 0.9680 0.9670
3480.235036 0.9670 0.9670 0.9670 0.9670 0.9680
3484.943148 0.9690 0.9695 0.9700 0.9710 0.9720
3489.651260 0.9720 0.9720 0.9720 0.9720 0.9725
3494.359372 0.9730 0.9730 0.9730 0.9730 0.9730
3499.067485 0.9740 0.9750 0.9750 0.9750 0.9750
3503.775597 0.9750 0.9755 0.9760 0.9760 0.9760
3508.483709 0.9760 0.9760 0.9760 0.9760 0.9760
3513.191821 0.9760 0.9760 0.9760 0.9760 0.9760
3517.899933 0.9770 0.9780 0.9780 0.9780 0.9780
3522.608046 0.9780 0.9780 0.9780 0.9780 0.9780
3527.316158 0.9780 0.9780 0.9780 0.9780 0.9780
3532.024270 0.9780 0.9780 0.9780 0.9780 0.9780
3536.732382 0.9780 0.9780 0.9780 0.9780 0.9780
3541.440494 0.9780 0.9780 0.9780 0.9780 0.9780
3546.148607 0.9780 0.9780 0.9780 0.9780 0.9785
3550.856719 0.9790 0.9790 0.9790 0.9790 0.9790
3555.564831 0.9790 0.9790 0.9790 0.9790 0.9790
3560.272943 0.9790 0.9790 0.9790 0.9790 0.9790
3564.981055 0.9790 0.9790 0.9790 0.9790 0.9790
3569.689168 0.9790 0.9790 0.9790 0.9786 0.9781
3574.397280 0.9780 0.9780 0.9780 0.9780 0.9780
3579.105392 0.9780 0.9780 0.9780 0.9780 0.9780
3583.813504 0.9780 0.9780 0.9780 0.9780 0.9780
3588.521616 0.9780 0.9780 0.9780 0.9780 0.9780
3593.229729 0.9780 0.9780 0.9780 0.9780 0.9780
3597.937841 0.9780 0.9772 0.9762 0.9760 0.9760
3602.645953 0.9756 0.9751 0.9730 0.9705 0.9696
3607.354065 0.9691 0.9678 0.9663 0.9648 0.9633
3612.062177 0.9611 0.9586 0.9572 0.9562 0.9552
3616.770290 0.9542 0.9494 0.9435 0.9394 0.9359
3621.478402 0.9339 0.9324 0.9320 0.9320 0.9316
3626.186514 0.9311 0.9291 0.9266 0.9208 0.9138
3630.894626 0.9057 0.8972 0.8869 0.8760 0.8715
3635.602739 0.8696 0.8589 0.8449 0.8238 0.7999
3640.310851 0.7876 0.7801 0.7726 0.7651 0.7526
3645.018963 0.7381 0.7319 0.7289 0.7188 0.7058
3649.727075 0.6943 0.6833 0.6758 0.6698 0.6625
3654.435187 0.6545 0.6469 0.6394 0.6302 0.6203
3659.143300 0.6160 0.6145 0.6133 0.6123 0.6120
3663.851412 0.6120 0.6127 0.6137 0.6143 0.6148
3668.559524 0.6177 0.6216 0.6233 0.6238 0.6403
3673.267636 0.6652 0.6753 0.6773 0.6828 0.6903
3677.975748 0.6972 0.7037 0.7174 0.7348 0.7613
3682.683861 0.7927 0.8097 0.8187 0.8280 0.8375
3687.391973 0.8488 0.8613 0.8797 0.9016 0.9235
3692.100085 0.9455 0.9570 0.9620 0.9646 0.9656
3696.808197 0.9669 0.9684 0.9708 0.9738 0.9759
3701.516309 0.9774 0.9783 0.9788 0.9793 0.9798
3706.224422 0.9806 0.9816 0.9823 0.9828 0.9830
3710.932534 0.9830 0.9836 0.9846 0.9850 0.9850
3715.640646 0.9853 0.9858 0.9860 0.9860 0.9866
3720.348758 0.9876 0.9880 0.9880 0.9880 0.9880
3725.056870 0.9880 0.9880 0.9880 0.9880 0.9880
3729.764983 0.9880 0.9875 0.9865 0.9860 0.9860
3734.473095 0.9860 0.9860 0.9865 0.9875 0.9880
3739.181207 0.9880 0.9883 0.9888 0.9890 0.9890
3743.889319 0.9890 0.9890 0.9895 0.9905 0.9910
3748.597431 0.9910 0.9910 0.9910 0.9910 0.9910
3753.305544 0.9910 0.9910 0.9910 0.9910 0.9905
3758.013656 0.9895 0.9890 0.9890 0.9888 0.9883
3762.721768 0.9880 0.9880 0.9875 0.9865 0.9860
3767.429880 0.9860 0.9860 0.9860 0.9858 0.9853
3772.137992 0.9850 0.9850 0.9845 0.9835 0.9830
3776.846105 0.9830 0.9830 0.9830 0.9830 0.9830
3781.554217 0.9830 0.9830 0.9830 0.9830 0.9830
3786.262329 0.9830 0.9830 0.9830 0.9830 0.9830
3790.970441 0.9830 0.9830 0.9830 0.9830 0.9830
3795.678554 0.9830 0.9830 0.9830 0.9830 0.9830
3800.386666 0.9830 0.9830
##END=
