##TITLE=3-Octanone
##JCAMP-DX=4.24
##DATA TYPE=INFRARED SPECTRUM
##ORIGIN=NIST Mass Spectrometry Data Center
##OWNER=NIST Standard Reference Data Program
Collection (C) 2018 copyright by the U.S. Secretary of Commerce
on behalf of the United States of America. All rights reserved.
##CAS REGISTRY NO=106-68-3
##MOLFORM=C 8 H 16 O
##$NIST SOURCE=MSDC-IR
##SPECTROMETER/DATA SYSTEM=HP-GC/MS/IRD
##STATE=gas
##XUNITS=1/CM
##YUNITS=ABSORBANCE
##XFACTOR=1.0
##YFACTOR=0.000001500
##DELTAX=4.0
##FIRSTX=550.0
##LASTX=3846.0
##FIRSTY=0.000080
##MAXX=3846
##MINX=550
##MAXY=0.015
##MINY=0
##NPOINTS=825
##XYDATA=(X++(Y..Y))
550.0 53 8 7 63 116 75 30 9 0 35
590.0 38 73 61 22 53 46 59 118 133 99
630.0 98 129 101 45 93 133 64 48 92 75
670.0 30 62 92 67 78 102 104 117 117 140
710.0 183 180 204 235 230 213 220 251 269 287
750.0 288 266 255 242 226 239 242 226 229 224
790.0 199 182 174 187 189 182 204 227 338 306
830.0 232 258 250 257 267 267 242 238 240 211
870.0 183 193 206 201 217 237 253 265 278 309
910.0 361 385 418 490 559 633 685 744 793 817
950.0 825 808 798 787 766 734 701 695 670 623
990.0 575 523 499 507 525 582 669 745 799 845
1030.0 884 905 897 889 817 720 673 643 632 621
1070.0 595 605 640 700 785 916 1075 1219 1358 1431
1110.0 1454 1468 1480 1498 1518 1540 1529 1503 1482 1483
1150.0 1489 1481 1459 1411 1292 1150 1025 899 822 790
1190.0 773 786 798 815 839 834 809 750 689 649
1230.0 617 592 577 580 571 569 586 589 588 596
1270.0 619 629 637 660 667 687 719 732 755 809
1310.0 877 943 1031 1140 1258 1393 1540 1716 1857 1953
1350.0 2010 1996 1911 1799 1681 1557 1469 1412 1349 1277
1390.0 1200 1098 1029 1025 1069 1128 1182 1242 1295 1323
1430.0 1350 1379 1407 1474 1571 1663 1782 1911 1969 1913
1470.0 1749 1510 1240 997 814 672 555 480 427 383
1510.0 342 303 274 258 247 237 224 224 204 174
1550.0 157 156 168 167 158 159 167 161 146 142
1590.0 144 140 152 155 162 171 168 169 167 169
1630.0 171 186 203 213 227 254 268 283 318 363
1670.0 438 532 618 732 917 1134 1437 1857 2435 3159
1710.0 4042 5032 6056 6892 7309 7206 6573 5566 4399 3292
1750.0 2379 1712 1252 935 724 581 476 388 321 276
1790.0 243 224 198 163 144 142 136 127 112 99
1830.0 94 78 72 76 75 75 67 69 73 65
1870.0 62 61 67 54 41 47 46 54 61 52
1910.0 59 64 50 46 52 48 47 55 52 42
1950.0 39 35 30 31 40 36 29 36 46 49
1990.0 53 61 60 57 66 66 55 52 51 50
2030.0 43 44 58 58 49 47 47 46 47 46
2070.0 40 38 38 44 46 38 43 41 32 40
2110.0 43 43 44 33 30 41 54 55 40 39
2150.0 43 39 43 42 52 48 33 37 36 31
2190.0 33 33 29 35 40 37 30 35 34 30
2230.0 33 31 33 32 28 29 26 23 19 21
2270.0 27 32 40 47 40 28 25 27 28 31
2310.0 35 40 45 37 40 65 69 65 63 58
2350.0 50 49 69 73 68 60 53 51 43 40
2390.0 38 27 26 31 27 23 30 33 26 25
2430.0 22 10 19 27 10 18 19 18 29 29
2470.0 17 20 23 6 6 26 30 21 9 8
2510.0 17 26 29 27 28 35 44 40 28 15
2550.0 16 20 33 33 28 50 51 35 30 27
2590.0 15 19 27 34 41 44 49 55 62 61
2630.0 61 53 50 58 68 85 93 93 91 97
2670.0 94 94 96 101 110 108 100 102 100 110
2710.0 129 126 130 142 152 163 177 200 220 237
2750.0 230 223 230 241 248 252 260 265 274 299
2790.0 337 382 430 478 533 573 614 688 749 797
2830.0 889 1003 1155 1340 1588 1920 2312 2728 3167 3580
2870.0 3900 4197 4456 4628 4752 4868 4927 5013 5212 5477
2910.0 5851 6349 6940 7583 8234 8863 9422 9820 10000 9961
2950.0 9691 9345 9115 9056 9004 8717 8158 7332 6301 5286
2990.0 4378 3566 2885 2351 1934 1626 1373 1175 1030 922
3030.0 819 718 661 587 496 449 424 391 356 346
3070.0 327 286 276 289 279 247 255 278 259 233
3110.0 227 210 206 206 172 171 180 149 151 160
3150.0 154 156 139 119 132 144 128 105 95 103
3190.0 99 85 72 67 64 42 22 29 25 35
3230.0 52 33 21 40 56 42 23 25 31 18
3270.0 14 30 39 54 54 36 21 3 6 12
3310.0 13 22 30 29 30 43 57 52 39 36
3350.0 44 45 40 34 45 52 49 62 72 67
3390.0 48 36 37 73 97 86 101 124 117 130
3430.0 164 183 186 178 167 132 127 117 86 65
3470.0 56 55 51 50 53 49 50 43 50 47
3510.0 35 37 31 33 32 28 14 23 43 28
3550.0 37 56 37 29 23 26 42 48 50 52
3590.0 48 38 29 29 28 20 27 44 49 66
3630.0 75 53 44 52 52 64 79 59 59 65
3670.0 45 53 67 66 84 77 34 45 80 79
3710.0 61 48 57 56 64 85 54 57 94 93
3750.0 85 83 75 56 51 75 62 51 71 74
3790.0 69 55 60 77 75 82 77 56 57 52
3830.0 65 84 92 81 70
##END=
