##TITLE=AMMONIA
##JCAMP-DX=4.24
##DATA TYPE=INFRARED SPECTRUM
##CLASS=COBLENTZ
##ORIGIN=DOW CHEMICAL COMPANY
##OWNER=COBLENTZ SOCIETY
Collection (C) 2018 copyright by the U.S. Secretary of Commerce
on behalf of the United States of America. All rights reserved.
##DATE=1964
##CAS REGISTRY NO=7664-41-7
##MOLFORM=H3 N
##SOURCE REFERENCE=COBLENTZ NO. 8751
##$NIST SOURCE=COBLENTZ
##$NIST IMAGE=cob8751
##SPECTROMETER/DATA SYSTEM=DOW KBr FOREPRISM
##INSTRUMENT PARAMETERS=GRATING CHANGED AT 5.0, 7.5, 15.0 MICRON
##STATE=GAS (50 mmHg DILUTED TO A TOTAL PRESSURE OF 600 mmHg WITH N2)
##PATH LENGTH=5 CM
##SAMPLING PROCEDURE=TRANSMISSION
##RESOLUTION=4
##DATA PROCESSING=DIGITIZED BY NIST FROM HARD COPY (FROM TWO SEGMENTS)
##XUNITS=1/CM
##YUNITS=TRANSMITTANCE
##XFACTOR=1.000000
##YFACTOR=1
##DELTAX=0.935253
##FIRSTX=453.094
##LASTX=3798.49
##FIRSTY=0.899
##MAXX=3798.49
##MINX=453.094
##MAXY=0.918
##MINY=0.021
##NPOINTS=3578
##XYDATA=(X++(Y..Y))
453.094000 0.8990 0.8990 0.8990 0.9000 0.9000
457.770264 0.9000 0.9000 0.9000 0.9000 0.9000
462.446529 0.9000 0.9000 0.9000 0.9000 0.9020
467.122793 0.9000 0.9000 0.9000 0.9000 0.9000
471.799058 0.9000 0.9000 0.9000 0.9000 0.9000
476.475322 0.9020 0.9020 0.9030 0.9030 0.9040
481.151587 0.9030 0.9040 0.9040 0.9050 0.9050
485.827851 0.9070 0.9080 0.9070 0.9050 0.9050
490.504115 0.9080 0.9100 0.9130 0.9160 0.9170
495.180380 0.9180 0.9160 0.9160 0.9140 0.9140
499.856644 0.9130 0.9120 0.9120 0.9100 0.9100
504.532909 0.9090 0.9100 0.9120 0.9130 0.9130
509.209173 0.9140 0.9160 0.9170 0.9160 0.9160
513.885437 0.9160 0.9140 0.9140 0.9140 0.9120
518.561702 0.9120 0.9130 0.9120 0.9120 0.9120
523.237966 0.9120 0.9100 0.9100 0.9100 0.9140
527.914231 0.9170 0.9180 0.9180 0.9180 0.9170
532.590495 0.9130 0.9100 0.9090 0.9080 0.9070
537.266760 0.9050 0.9040 0.9030 0.9030 0.9030
541.943024 0.9040 0.9040 0.9040 0.9040 0.9030
546.619288 0.9030 0.9020 0.9020 0.9020 0.9000
551.295553 0.8980 0.8950 0.8950 0.8930 0.8900
555.971817 0.8850 0.8790 0.8760 0.8790 0.8850
560.648082 0.8950 0.8990 0.9020 0.9030 0.9030
565.324346 0.9030 0.8940 0.9030 0.9030 0.9040
570.000611 0.9040 0.9040 0.9040 0.9020 0.8990
574.676875 0.8960 0.8980 0.9000 0.9030 0.9050
579.353139 0.9080 0.9080 0.9090 0.9090 0.9100
584.029404 0.9100 0.9120 0.9100 0.9090 0.9090
588.705668 0.9090 0.9090 0.9130 0.9130 0.9130
593.381933 0.8950 0.8880 0.8890 0.9100 0.9120
598.058197 0.9050 0.9050 0.9070 0.9070 0.9120
602.734461 0.9130 0.9130 0.9120 0.9120 0.9120
607.410726 0.9120 0.9100 0.9090 0.9090 0.9080
612.086990 0.9070 0.9070 0.9050 0.9050 0.9040
616.763255 0.9030 0.9030 0.9000 0.8960 0.8950
621.439519 0.8940 0.8940 0.8930 0.8930 0.8900
626.115784 0.8890 0.8711 0.8620 0.8710 0.8660
630.792048 0.8579 0.8100 0.8100 0.8350 0.8520
635.468312 0.8670 0.8750 0.8880 0.8950 0.8980
640.144577 0.8990 0.8990 0.9030 0.9050 0.9070
644.820841 0.9070 0.9090 0.9100 0.9120 0.9120
649.497106 0.9130 0.9130 0.9120 0.9120 0.9080
654.173370 0.9020 0.9080 0.9080 0.9080 0.9100
658.849635 0.9100 0.9100 0.9100 0.9120 0.9100
663.525899 0.9100 0.9090 0.9090 0.9090 0.9090
668.202163 0.9080 0.9080 0.9080 0.9080 0.9080
672.878428 0.9080 0.9080 0.9080 0.9100 0.9090
677.554692 0.9090 0.9090 0.9080 0.9070 0.9040
682.230957 0.9040 0.9080 0.9080 0.9080 0.9050
686.907221 0.9040 0.9030 0.9030 0.9090 0.9090
691.583485 0.8980 0.8810 0.8611 0.8391 0.8669
696.259750 0.8980 0.8990 0.8990 0.9020 0.9020
700.936014 0.8990 0.8960 0.8930 0.8950 0.8940
705.612279 0.8910 0.8950 0.8900 0.8940 0.8900
710.288543 0.8800 0.8700 0.8700 0.8700 0.8710
714.964808 0.8710 0.8760 0.8860 0.8900 0.8910
719.641072 0.8960 0.8980 0.8960 0.8860 0.8820
724.317336 0.8700 0.8630 0.8630 0.8800 0.8740
728.993601 0.8680 0.8660 0.8580 0.8699 0.8859
733.669865 0.8890 0.8490 0.8790 0.8900 0.8790
738.346130 0.8471 0.8181 0.8160 0.8429 0.8928
743.022394 0.8810 0.8750 0.8600 0.8430 0.8021
747.698658 0.8020 0.8558 0.8600 0.8610 0.8610
752.374923 0.8800 0.8800 0.8400 0.8390 0.8420
757.051187 0.8440 0.8540 0.8650 0.8720 0.8541
761.727452 0.8440 0.8230 0.8440 0.8540 0.8570
766.403716 0.8570 0.8460 0.8301 0.7862 0.7860
771.079981 0.7951 0.8570 0.8740 0.8700 0.8660
775.756245 0.8580 0.8470 0.8350 0.8071 0.8060
780.432509 0.6660 0.6660 0.6930 0.8338 0.8739
785.108774 0.8750 0.8750 0.7983 0.7602 0.6068
789.785038 0.6062 0.7600 0.8280 0.8740 0.8710
794.461303 0.8241 0.8100 0.7871 0.7541 0.6813
799.137567 0.6810 0.7220 0.8209 0.8610 0.8700
803.813832 0.8790 0.8770 0.8750 0.8631 0.8242
808.490096 0.5540 0.5541 0.6920 0.8279 0.8630
813.166360 0.8620 0.7862 0.7162 0.6463 0.5773
817.842625 0.5430 0.5070 0.4400 0.6358 0.8476
822.518889 0.8789 0.8790 0.8740 0.8630 0.8481
827.195154 0.8338 0.6359 0.4360 0.3401 0.8514
831.871418 0.8520 0.6465 0.5961 0.5940 0.5691
836.547682 0.5451 0.6940 0.8699 0.8760 0.8790
841.223947 0.8760 0.8740 0.8710 0.8710 0.8680
845.900211 0.8650 0.8608 0.6030 0.3441 0.3440
850.576476 0.6844 0.8247 0.8100 0.7931 0.5420
855.252740 0.2904 0.8120 0.8320 0.8510 0.8740
859.929005 0.8770 0.8790 0.8790 0.8770 0.8750
864.605269 0.8720 0.8680 0.8480 0.7091 0.4982
869.281533 0.2864 0.8387 0.6555 0.5723 0.4893
873.957798 0.8200 0.8470 0.8650 0.8770 0.8800
878.634062 0.8810 0.8810 0.8820 0.8840 0.8820
883.310327 0.8770 0.8760 0.8750 0.6991 0.6091
887.986591 0.5171 0.4831 0.4461 0.3812 0.3790
892.662856 0.3803 0.7460 0.8540 0.8720 0.8750
897.339120 0.8770 0.8800 0.8810 0.8810 0.8800
902.015384 0.8700 0.8670 0.8650 0.8620 0.8090
906.691649 0.6832 0.5613 0.4633 0.3653 0.3650
911.367913 0.8630 0.8620 0.8380 0.8140 0.8020
916.044178 0.7980 0.7930 0.7830 0.7591 0.7152
920.720442 0.5770 0.5759 0.5170 0.4590 0.4180
925.396706 0.3671 0.3161 0.1893 0.1332 0.1061
930.072971 0.0800 0.0770 0.0240 0.2119 0.3997
934.749235 0.5058 0.5240 0.6964 0.7129 0.7926
939.425500 0.8050 0.8240 0.8510 0.8520 0.8530
944.101764 0.8520 0.8231 0.8140 0.6695 0.5554
948.778029 0.5540 0.5480 0.5400 0.7828 0.8210
953.454293 0.8210 0.8190 0.7981 0.7492 0.6793
958.130557 0.5570 0.4930 0.4300 0.2972 0.2122
962.806822 0.1132 0.0761 0.0391 0.0211 0.0210
967.483086 0.2152 0.3701 0.6240 0.7159 0.7629
972.159351 0.7999 0.8609 0.8700 0.8710 0.8740
976.835615 0.8750 0.8790 0.8800 0.8800 0.8810
981.511880 0.8820 0.8820 0.8810 0.8810 0.8800
986.188144 0.8750 0.8670 0.8540 0.6171 0.5251
990.864408 0.4322 0.3891 0.2464 0.6585 0.8512
995.540673 0.8600 0.8710 0.8740 0.8760 0.8770
1000.216937 0.8790 0.8770 0.8720 0.8720 0.8710
1004.893202 0.8710 0.8619 0.6460 0.4281 0.8186
1009.569466 0.8180 0.6135 0.4864 0.3575 0.7912
1014.245730 0.8110 0.8290 0.8470 0.8720 0.8740
1018.921995 0.8760 0.8770 0.8790 0.8760 0.8680
1023.598259 0.8530 0.8530 0.8230 0.6281 0.5671
1028.274524 0.5061 0.8253 0.8260 0.5878 0.5661
1032.950788 0.5428 0.2650 0.2650 0.6566 0.8517
1037.627053 0.8650 0.8620 0.8610 0.8600 0.8580
1042.303317 0.8480 0.8340 0.8120 0.5811 0.3482
1046.979581 0.3480 0.7421 0.7430 0.7430 0.7360
1051.655846 0.5989 0.5160 0.4320 0.4020 0.6476
1056.332110 0.7677 0.8488 0.8580 0.8600 0.8610
1061.008375 0.8620 0.8620 0.8580 0.7930 0.5992
1065.684639 0.4033 0.4000 0.5775 0.7733 0.7780
1070.360904 0.7780 0.7400 0.7130 0.6411 0.5751
1075.037168 0.4872 0.3982 0.5814 0.5900 0.8518
1079.713432 0.8530 0.8470 0.8390 0.8280 0.8140
1084.389697 0.7561 0.5684 0.3795 0.7936 0.6785
1089.065961 0.6792 0.8250 0.7830 0.7770 0.7440
1093.742226 0.7370 0.6971 0.6671 0.5813 0.5800
1098.418490 0.8610 0.8579 0.7320 0.7110 0.6870
1103.094754 0.5851 0.4832 0.4421 0.8377 0.8559
1107.771019 0.8560 0.8520 0.8370 0.8040 0.7720
1112.447283 0.7441 0.8009 0.7960 0.7870 0.7462
1117.123548 0.6220 0.6192 0.8530 0.8530 0.7131
1121.799812 0.5672 0.5271 0.4881 0.6445 0.8452
1126.476077 0.8610 0.8620 0.8720 0.8750 0.8670
1131.152341 0.8440 0.8320 0.8121 0.8040 0.8339
1135.828605 0.8320 0.8050 0.7870 0.7600 0.5671
1140.504870 0.5670 0.5890 0.7855 0.8418 0.8470
1145.181134 0.8530 0.8610 0.8670 0.8720 0.8770
1149.857399 0.8750 0.8710 0.8660 0.8471 0.8420
1154.533663 0.8580 0.8580 0.8570 0.8470 0.7171
1159.209928 0.5772 0.5750 0.5770 0.8761 0.8900
1163.886192 0.8900 0.8700 0.8670 0.8700 0.8850
1168.562456 0.8860 0.8880 0.8850 0.8790 0.8750
1173.238721 0.8720 0.8680 0.8660 0.8600 0.8580
1177.914985 0.8460 0.6843 0.6840 0.7907 0.8737
1182.591250 0.8820 0.8840 0.8880 0.8880 0.8880
1187.267514 0.8890 0.8890 0.8890 0.8890 0.8900
1191.943778 0.8900 0.8890 0.8890 0.8860 0.8820
1196.620043 0.8430 0.7691 0.7680 0.8109 0.8738
1201.296307 0.8860 0.8910 0.8930 0.8940 0.8940
1205.972572 0.8940 0.8940 0.8940 0.8940 0.8940
1210.648836 0.8940 0.8930 0.8930 0.8720 0.8520
1215.325101 0.8420 0.8420 0.8659 0.8909 0.8930
1220.001365 0.8940 0.8960 0.8960 0.8980 0.8980
1224.677629 0.8990 0.8990 0.8990 0.8990 0.8990
1229.353894 0.9000 0.9000 0.8980 0.8800 0.8710
1234.030158 0.8710 0.8820 0.8989 0.9000 0.9000
1238.706423 0.8990 0.8990 0.8980 0.8960 0.8950
1243.382687 0.8950 0.8940 0.8930 0.8910 0.8900
1248.058951 0.8880 0.8810 0.8810 0.8840 0.8850
1252.735216 0.8860 0.8900 0.8900 0.8900 0.8910
1257.411480 0.8910 0.8910 0.8910 0.8910 0.8900
1262.087745 0.8900 0.8860 0.8850 0.8850 0.8840
1266.764009 0.8850 0.8850 0.8850 0.8850 0.8850
1271.440274 0.8860 0.8860 0.8860 0.8860 0.8860
1276.116538 0.8860 0.8860 0.8860 0.8850 0.8850
1280.792802 0.8850 0.8850 0.8850 0.8850 0.8850
1285.469067 0.8840 0.8840 0.8840 0.8820 0.8820
1290.145331 0.8820 0.8810 0.8800 0.8800 0.8790
1294.821596 0.8790 0.8790 0.8770 0.8770 0.8770
1299.497860 0.8760 0.8760 0.8770 0.8770 0.8770
1304.174125 0.8790 0.8770 0.8770 0.8770 0.8770
1308.850389 0.8770 0.8760 0.8760 0.8760 0.8760
1313.526653 0.8760 0.8770 0.8770 0.8770 0.8770
1318.202918 0.8770 0.8770 0.8770 0.8770 0.8790
1322.879182 0.8790 0.8790 0.8770 0.8770 0.8770
1327.555447 0.8770 0.8760 0.8770 0.8770 0.8770
1332.231711 0.8790 0.8790 0.8790 0.8790 0.8790
1336.907975 0.8790 0.8790 0.8790 0.8790 0.8790
1341.584240 0.8790 0.8790 0.8770 0.8770 0.8770
1346.260504 0.8770 0.8770 0.8770 0.8770 0.8790
1350.936769 0.8790 0.8790 0.8770 0.8770 0.8770
1355.613033 0.8770 0.8770 0.8770 0.8770 0.8770
1360.289298 0.8790 0.8770 0.8770 0.8770 0.8770
1364.965562 0.8770 0.8790 0.8790 0.8790 0.8790
1369.641826 0.8790 0.8790 0.8770 0.8760 0.8760
1374.318091 0.8760 0.8750 0.8750 0.8750 0.8750
1378.994355 0.8740 0.8740 0.8740 0.8720 0.8720
1383.670620 0.8710 0.8710 0.8710 0.8710 0.8710
1388.346884 0.8710 0.8710 0.8710 0.8710 0.8710
1393.023149 0.8720 0.8720 0.8720 0.8720 0.8720
1397.699413 0.8720 0.8720 0.8710 0.8710 0.8710
1402.375677 0.8710 0.8700 0.8700 0.8700 0.8700
1407.051942 0.8700 0.8700 0.8700 0.8700 0.8700
1411.728206 0.8700 0.8680 0.8680 0.8680 0.8670
1416.404471 0.8670 0.8670 0.8660 0.8660 0.8660
1421.080735 0.8650 0.8650 0.8650 0.8650 0.8650
1425.756999 0.8660 0.8670 0.8670 0.8670 0.8670
1430.433264 0.8680 0.8700 0.8700 0.8700 0.8700
1435.109528 0.8670 0.8660 0.8630 0.8600 0.8570
1439.785793 0.8540 0.8570 0.8570 0.8600 0.8620
1444.462057 0.8630 0.8650 0.8650 0.8660 0.8660
1449.138322 0.8660 0.8660 0.8650 0.8610 0.8580
1453.814586 0.8570 0.8440 0.8160 0.8160 0.8440
1458.490850 0.8540 0.8610 0.8660 0.8670 0.8680
1463.167115 0.8630 0.8610 0.8600 0.8580 0.8580
1467.843379 0.8580 0.8570 0.8570 0.8560 0.8151
1472.519644 0.7270 0.7271 0.8540 0.8610 0.8610
1477.195908 0.8400 0.8400 0.8520 0.8520 0.8530
1481.872173 0.8530 0.8510 0.8460 0.8330 0.8150
1486.548437 0.8020 0.7011 0.6571 0.6570 0.7507
1491.224701 0.8580 0.8580 0.8540 0.8530 0.8440
1495.900966 0.7961 0.7880 0.7960 0.8120 0.8180
1500.577230 0.8099 0.7559 0.6750 0.6750 0.7699
1505.253495 0.8009 0.8060 0.8230 0.8419 0.8510
1509.929759 0.8440 0.8290 0.8120 0.8020 0.7970
1514.606023 0.7860 0.7680 0.7949 0.7691 0.7630
1519.282288 0.6450 0.6432 0.8520 0.8520 0.8180
1523.958552 0.7950 0.7930 0.7900 0.8299 0.8300
1528.634817 0.7530 0.7510 0.7680 0.7810 0.7810
1533.311081 0.7600 0.7261 0.6013 0.6010 0.7774
1537.987346 0.8320 0.8240 0.8160 0.8090 0.7970
1542.663610 0.7930 0.7860 0.7860 0.7162 0.6572
1547.339874 0.6572 0.7559 0.7110 0.7110 0.8060
1552.016139 0.8520 0.8520 0.7562 0.7540 0.7560
1556.692403 0.8200 0.8210 0.8430 0.8430 0.8020
1561.368668 0.7451 0.6751 0.5823 0.5820 0.6706
1566.044932 0.6710 0.6731 0.7361 0.8110 0.8510
1570.721197 0.7721 0.8519 0.8570 0.8570 0.7703
1575.397461 0.7701 0.8520 0.8510 0.8060 0.8040
1580.073725 0.7591 0.6762 0.5942 0.5940 0.8311
1584.749990 0.8440 0.8470 0.8480 0.8480 0.8460
1589.426254 0.8420 0.8340 0.7701 0.7680 0.7690
1594.102519 0.8180 0.8179 0.7080 0.6990 0.7080
1598.778783 0.7879 0.8000 0.8329 0.8370 0.8370
1603.455047 0.8230 0.8230 0.8250 0.8250 0.8000
1608.131312 0.7910 0.7840 0.7810 0.7770 0.7501
1612.807576 0.7130 0.7130 0.7450 0.6990 0.6590
1617.483841 0.6590 0.6989 0.6930 0.6900 0.6691
1622.160105 0.6519 0.6089 0.5750 0.5720 0.5480
1626.836370 0.5240 0.5190 0.4781 0.3703 0.3670
1631.512634 0.6421 0.6810 0.7080 0.7580 0.7780
1636.188898 0.7790 0.7600 0.7600 0.7590 0.7949
1640.865163 0.7830 0.7630 0.7480 0.7430 0.7680
1645.541427 0.7790 0.7830 0.7271 0.7270 0.7689
1650.217692 0.7970 0.8040 0.8120 0.8290 0.8290
1654.893956 0.8290 0.8290 0.8280 0.8280 0.8190
1659.570221 0.8150 0.8020 0.7909 0.7270 0.7350
1664.246485 0.8149 0.8440 0.8460 0.8440 0.8350
1668.922749 0.7440 0.7430 0.7760 0.8490 0.8480
1673.599014 0.8460 0.8470 0.8470 0.7393 0.7071
1678.275278 0.6810 0.6811 0.7311 0.7830 0.8330
1682.951543 0.8280 0.7791 0.7790 0.8259 0.8569
1687.627807 0.8570 0.8540 0.8540 0.8440 0.8000
1692.304071 0.7031 0.5632 0.5630 0.6777 0.8175
1696.980336 0.8510 0.8508 0.7630 0.7260 0.7260
1701.656600 0.8469 0.7791 0.8319 0.8380 0.8380
1706.332865 0.8379 0.8099 0.7400 0.7400 0.8300
1711.009129 0.8480 0.7931 0.7561 0.7251 0.7230
1715.685394 0.7251 0.7451 0.7811 0.8200 0.8340
1720.361658 0.8340 0.7930 0.7161 0.7160 0.7539
1725.037922 0.7671 0.7920 0.8240 0.8380 0.8420
1729.714187 0.7960 0.7511 0.7540 0.7909 0.8139
1734.390451 0.8490 0.8487 0.6870 0.6760 0.6760
1739.066716 0.6930 0.7260 0.7440 0.7809 0.7999
1743.742980 0.8260 0.8259 0.7600 0.7700 0.8230
1748.419245 0.8340 0.8380 0.8380 0.7562 0.7530
1753.095509 0.7601 0.8380 0.8290 0.8190 0.8110
1757.771773 0.8100 0.8120 0.8210 0.7492 0.7490
1762.448038 0.8330 0.8370 0.8180 0.7820 0.7730
1767.124302 0.7730 0.8099 0.8150 0.8190 0.8260
1771.800567 0.8340 0.8420 0.8420 0.8120 0.7790
1776.476831 0.7790 0.8020 0.8419 0.8430 0.8101
1781.153095 0.8010 0.8060 0.8320 0.8320 0.8150
1785.829360 0.8300 0.8320 0.8330 0.8370 0.8370
1790.505624 0.8370 0.8240 0.8320 0.8350 0.8370
1795.181889 0.8400 0.8420 0.8390 0.8330 0.8300
1799.858153 0.8300 0.8370 0.8380 0.8380 0.8320
1804.534418 0.8320 0.8320 0.8340 0.8340 0.8370
1809.210682 0.8380 0.8430 0.8460 0.8460 0.8330
1813.886946 0.8330 0.8340 0.8340 0.8370 0.8380
1818.563211 0.8390 0.8400 0.8400 0.8400 0.8420
1823.239475 0.8430 0.8460 0.8470 0.8480 0.8490
1827.915740 0.8510 0.8490 0.8480 0.8470 0.8480
1832.592004 0.8480 0.8480 0.8470 0.8470 0.8470
1837.268268 0.8470 0.8470 0.8460 0.8460 0.8460
1841.944533 0.8470 0.8480 0.8470 0.8480 0.8480
1846.620797 0.8480 0.8480 0.8490 0.8490 0.8490
1851.297062 0.8490 0.8510 0.8510 0.8510 0.8510
1855.973326 0.8510 0.8510 0.8510 0.8510 0.8510
1860.649591 0.8510 0.8510 0.8510 0.8510 0.8510
1865.325855 0.8510 0.8510 0.8510 0.8510 0.8510
1870.002119 0.8510 0.8510 0.8510 0.8510 0.8510
1874.678384 0.8510 0.8510 0.8510 0.8510 0.8510
1879.354648 0.8510 0.8510 0.8510 0.8510 0.8520
1884.030913 0.8520 0.8520 0.8520 0.8520 0.8520
1888.707177 0.8520 0.8520 0.8520 0.8520 0.8520
1893.383442 0.8520 0.8520 0.8520 0.8520 0.8520
1898.059706 0.8520 0.8520 0.8520 0.8520 0.8520
1902.735970 0.8520 0.8520 0.8520 0.8520 0.8520
1907.412235 0.8520 0.8520 0.8520 0.8520 0.8520
1912.088499 0.8510 0.8510 0.8510 0.8510 0.8510
1916.764764 0.8510 0.8510 0.8510 0.8510 0.8510
1921.441028 0.8510 0.8510 0.8510 0.8510 0.8510
1926.117292 0.8510 0.8510 0.8510 0.8510 0.8510
1930.793557 0.8510 0.8510 0.8510 0.8510 0.8510
1935.469821 0.8510 0.8510 0.8510 0.8510 0.8510
1940.146086 0.8510 0.8510 0.8510 0.8510 0.8510
1944.822350 0.8510 0.8510 0.8510 0.8510 0.8510
1949.498615 0.8510 0.8510 0.8510 0.8510 0.8510
1954.174879 0.8510 0.8510 0.8510 0.8510 0.8510
1958.851143 0.8510 0.8510 0.8510 0.8510 0.8510
1963.527408 0.8510 0.8510 0.8510 0.8510 0.8510
1968.203672 0.8510 0.8510 0.8510 0.8510 0.8510
1972.879937 0.8510 0.8510 0.8510 0.8510 0.8510
1977.556201 0.8510 0.8510 0.8510 0.8510 0.8510
1982.232466 0.8510 0.8510 0.8510 0.8510 0.8510
1986.908730 0.8510 0.8510 0.8510 0.8510 0.8510
1991.584994 0.8510 0.8510 0.8510 0.8490 0.8490
1996.261259 0.8490 0.8490 0.8490 0.8490 0.8490
2000.937523 0.8490 0.8490 0.8490 0.8490 0.8490
2005.613788 0.8490 0.8490 0.8490 0.8490 0.8490
2010.290052 0.8490 0.8490 0.8490 0.8490 0.8490
2014.966316 0.8490 0.8490 0.8490 0.8490 0.8490
2019.642581 0.8490 0.8490 0.8490 0.8490 0.8490
2024.318845 0.8490 0.8490 0.8490 0.8490 0.8490
2028.995110 0.8490 0.8490 0.8490 0.8490 0.8490
2033.671374 0.8490 0.8490 0.8490 0.8490 0.8490
2038.347639 0.8490 0.8490 0.8490 0.8490 0.8490
2043.023903 0.8490 0.8490 0.8490 0.8490 0.8490
2047.700167 0.8490 0.8490 0.8490 0.8490 0.8490
2052.376432 0.8490 0.8490 0.8490 0.8490 0.8490
2057.052696 0.8490 0.8490 0.8490 0.8490 0.8490
2061.728961 0.8490 0.8490 0.8490 0.8500 0.8509
2066.405225 0.8510 0.8510 0.8510 0.8510 0.8510
2071.081490 0.8510 0.8510 0.8510 0.8515 0.8520
2075.757754 0.8520 0.8520 0.8520 0.8520 0.8520
2080.434018 0.8520 0.8520 0.8520 0.8520 0.8520
2085.110283 0.8520 0.8520 0.8520 0.8520 0.8520
2089.786547 0.8520 0.8520 0.8520 0.8520 0.8520
2094.462812 0.8520 0.8520 0.8520 0.8520 0.8520
2099.139076 0.8520 0.8520 0.8520 0.8520 0.8520
2103.815340 0.8520 0.8520 0.8520 0.8520 0.8520
2108.491605 0.8520 0.8520 0.8520 0.8520 0.8520
2113.167869 0.8520 0.8520 0.8520 0.8520 0.8520
2117.844134 0.8520 0.8520 0.8520 0.8520 0.8520
2122.520398 0.8520 0.8520 0.8520 0.8520 0.8520
2127.196663 0.8520 0.8520 0.8520 0.8520 0.8520
2131.872927 0.8520 0.8520 0.8520 0.8520 0.8520
2136.549191 0.8520 0.8520 0.8520 0.8520 0.8520
2141.225456 0.8520 0.8520 0.8520 0.8520 0.8520
2145.901720 0.8520 0.8520 0.8520 0.8520 0.8520
2150.577985 0.8520 0.8520 0.8520 0.8520 0.8520
2155.254249 0.8520 0.8520 0.8520 0.8520 0.8520
2159.930514 0.8520 0.8520 0.8520 0.8520 0.8520
2164.606778 0.8520 0.8520 0.8520 0.8520 0.8520
2169.283042 0.8520 0.8520 0.8520 0.8520 0.8520
2173.959307 0.8520 0.8520 0.8520 0.8520 0.8520
2178.635571 0.8520 0.8520 0.8520 0.8520 0.8520
2183.311836 0.8520 0.8520 0.8520 0.8520 0.8520
2187.988100 0.8520 0.8520 0.8520 0.8520 0.8520
2192.664364 0.8520 0.8520 0.8520 0.8520 0.8520
2197.340629 0.8520 0.8520 0.8520 0.8520 0.8524
2202.016893 0.8529 0.8530 0.8530 0.8530 0.8530
2206.693158 0.8530 0.8530 0.8530 0.8530 0.8530
2211.369422 0.8530 0.8530 0.8530 0.8530 0.8530
2216.045687 0.8530 0.8530 0.8530 0.8530 0.8530
2220.721951 0.8530 0.8530 0.8530 0.8530 0.8530
2225.398215 0.8530 0.8530 0.8530 0.8530 0.8530
2230.074480 0.8530 0.8530 0.8530 0.8530 0.8530
2234.750744 0.8530 0.8530 0.8530 0.8530 0.8530
2239.427009 0.8530 0.8530 0.8530 0.8530 0.8530
2244.103273 0.8530 0.8530 0.8530 0.8530 0.8530
2248.779538 0.8530 0.8530 0.8530 0.8530 0.8530
2253.455802 0.8530 0.8530 0.8530 0.8530 0.8530
2258.132066 0.8530 0.8530 0.8530 0.8530 0.8530
2262.808331 0.8530 0.8530 0.8530 0.8530 0.8530
2267.484595 0.8530 0.8530 0.8530 0.8530 0.8530
2272.160860 0.8530 0.8530 0.8530 0.8530 0.8530
2276.837124 0.8530 0.8530 0.8530 0.8530 0.8530
2281.513388 0.8530 0.8530 0.8530 0.8530 0.8530
2286.189653 0.8530 0.8530 0.8530 0.8530 0.8530
2290.865917 0.8530 0.8530 0.8530 0.8530 0.8530
2295.542182 0.8530 0.8530 0.8530 0.8530 0.8530
2300.218446 0.8530 0.8530 0.8534 0.8539 0.8540
2304.894711 0.8540 0.8548 0.8558 0.8564 0.8569
2309.570975 0.8570 0.8570 0.8574 0.8579 0.8592
2314.247239 0.8607 0.8614 0.8619 0.8624 0.8629
2318.923504 0.8630 0.8630 0.8638 0.8648 0.8654
2323.599768 0.8659 0.8660 0.8660 0.8664 0.8669
2328.276033 0.8670 0.8670 0.8674 0.8679 0.8680
2332.952297 0.8680 0.8680 0.8680 0.8688 0.8698
2337.628561 0.8700 0.8700 0.8700 0.8700 0.8700
2342.304826 0.8700 0.8704 0.8709 0.8710 0.8710
2346.981090 0.8710 0.8710 0.8710 0.8710 0.8710
2351.657355 0.8710 0.8710 0.8710 0.8710 0.8710
2356.333619 0.8710 0.8710 0.8710 0.8710 0.8710
2361.009884 0.8710 0.8706 0.8701 0.8692 0.8682
2365.686148 0.8680 0.8680 0.8676 0.8671 0.8666
2370.362412 0.8661 0.8660 0.8660 0.8656 0.8651
2375.038677 0.8642 0.8632 0.8626 0.8621 0.8616
2379.714941 0.8611 0.8606 0.8601 0.8600 0.8600
2384.391206 0.8593 0.8583 0.8576 0.8571 0.8570
2389.067470 0.8570 0.8570 0.8570 0.8570 0.8570
2393.743735 0.8566 0.8561 0.8560 0.8560 0.8553
2398.419999 0.8543 0.8540 0.8540 0.8540 0.8540
2403.096263 0.8540 0.8540 0.8540 0.8540 0.8540
2407.772528 0.8540 0.8540 0.8540 0.8540 0.8540
2412.448792 0.8540 0.8540 0.8540 0.8540 0.8540
2417.125057 0.8540 0.8540 0.8540 0.8540 0.8540
2421.801321 0.8540 0.8540 0.8540 0.8540 0.8540
2426.477585 0.8540 0.8540 0.8540 0.8540 0.8540
2431.153850 0.8540 0.8540 0.8540 0.8540 0.8540
2435.830114 0.8540 0.8540 0.8540 0.8540 0.8540
2440.506379 0.8540 0.8540 0.8540 0.8540 0.8540
2445.182643 0.8540 0.8540 0.8540 0.8540 0.8540
2449.858908 0.8540 0.8540 0.8540 0.8540 0.8540
2454.535172 0.8540 0.8540 0.8540 0.8540 0.8540
2459.211436 0.8540 0.8540 0.8540 0.8540 0.8540
2463.887701 0.8540 0.8540 0.8540 0.8540 0.8540
2468.563965 0.8540 0.8540 0.8540 0.8540 0.8540
2473.240230 0.8540 0.8540 0.8540 0.8540 0.8540
2477.916494 0.8540 0.8540 0.8547 0.8557 0.8560
2482.592759 0.8560 0.8560 0.8560 0.8560 0.8560
2487.269023 0.8560 0.8560 0.8560 0.8560 0.8560
2491.945287 0.8560 0.8560 0.8560 0.8560 0.8560
2496.621552 0.8560 0.8560 0.8560 0.8560 0.8560
2501.297816 0.8560 0.8560 0.8560 0.8560 0.8560
2505.974081 0.8560 0.8560 0.8560 0.8560 0.8560
2510.650345 0.8560 0.8560 0.8560 0.8560 0.8560
2515.326609 0.8560 0.8560 0.8560 0.8560 0.8560
2520.002874 0.8560 0.8560 0.8560 0.8560 0.8560
2524.679138 0.8560 0.8560 0.8560 0.8560 0.8560
2529.355403 0.8560 0.8560 0.8560 0.8560 0.8560
2534.031667 0.8560 0.8560 0.8560 0.8560 0.8560
2538.707932 0.8560 0.8560 0.8560 0.8560 0.8560
2543.384196 0.8560 0.8560 0.8560 0.8560 0.8560
2548.060460 0.8560 0.8560 0.8560 0.8560 0.8560
2552.736725 0.8560 0.8560 0.8560 0.8560 0.8560
2557.412989 0.8560 0.8560 0.8560 0.8560 0.8560
2562.089254 0.8560 0.8560 0.8560 0.8560 0.8560
2566.765518 0.8560 0.8560 0.8560 0.8560 0.8560
2571.441783 0.8560 0.8560 0.8560 0.8560 0.8560
2576.118047 0.8560 0.8560 0.8560 0.8560 0.8560
2580.794311 0.8560 0.8560 0.8560 0.8560 0.8560
2585.470576 0.8560 0.8560 0.8560 0.8560 0.8560
2590.146840 0.8560 0.8560 0.8560 0.8560 0.8560
2594.823105 0.8560 0.8560 0.8560 0.8560 0.8560
2599.499369 0.8560 0.8560 0.8560 0.8560 0.8560
2604.175633 0.8560 0.8560 0.8560 0.8560 0.8560
2608.851898 0.8560 0.8560 0.8563 0.8568 0.8570
2613.528162 0.8570 0.8570 0.8570 0.8570 0.8570
2618.204427 0.8570 0.8570 0.8570 0.8570 0.8570
2622.880691 0.8570 0.8570 0.8570 0.8570 0.8570
2627.556956 0.8570 0.8570 0.8570 0.8570 0.8570
2632.233220 0.8570 0.8570 0.8570 0.8570 0.8570
2636.909484 0.8570 0.8570 0.8570 0.8570 0.8570
2641.585749 0.8570 0.8570 0.8570 0.8570 0.8570
2646.262013 0.8570 0.8570 0.8570 0.8570 0.8570
2650.938278 0.8570 0.8570 0.8570 0.8570 0.8570
2655.614542 0.8570 0.8570 0.8570 0.8570 0.8570
2660.290807 0.8570 0.8570 0.8570 0.8570 0.8570
2664.967071 0.8570 0.8570 0.8570 0.8570 0.8570
2669.643335 0.8570 0.8570 0.8570 0.8570 0.8570
2674.319600 0.8570 0.8570 0.8570 0.8570 0.8570
2678.995864 0.8570 0.8570 0.8570 0.8570 0.8570
2683.672129 0.8570 0.8570 0.8570 0.8570 0.8570
2688.348393 0.8570 0.8570 0.8570 0.8570 0.8570
2693.024657 0.8570 0.8570 0.8570 0.8570 0.8570
2697.700922 0.8570 0.8570 0.8570 0.8570 0.8570
2702.377186 0.8570 0.8570 0.8570 0.8570 0.8570
2707.053451 0.8570 0.8570 0.8570 0.8570 0.8570
2711.729715 0.8570 0.8570 0.8570 0.8570 0.8570
2716.405980 0.8570 0.8567 0.8562 0.8560 0.8560
2721.082244 0.8560 0.8560 0.8560 0.8560 0.8560
2725.758508 0.8560 0.8560 0.8560 0.8560 0.8560
2730.434773 0.8560 0.8560 0.8560 0.8560 0.8560
2735.111037 0.8560 0.8560 0.8560 0.8560 0.8560
2739.787302 0.8560 0.8560 0.8560 0.8560 0.8560
2744.463566 0.8560 0.8560 0.8560 0.8560 0.8560
2749.139831 0.8560 0.8560 0.8560 0.8560 0.8560
2753.816095 0.8560 0.8560 0.8560 0.8560 0.8560
2758.492359 0.8560 0.8560 0.8560 0.8560 0.8560
2763.168624 0.8560 0.8560 0.8560 0.8560 0.8560
2767.844888 0.8560 0.8560 0.8560 0.8560 0.8560
2772.521153 0.8560 0.8560 0.8560 0.8560 0.8560
2777.197417 0.8560 0.8560 0.8560 0.8560 0.8560
2781.873681 0.8560 0.8560 0.8560 0.8560 0.8560
2786.549946 0.8560 0.8560 0.8560 0.8560 0.8560
2791.226210 0.8560 0.8560 0.8560 0.8560 0.8560
2795.902475 0.8560 0.8560 0.8560 0.8560 0.8560
2800.578739 0.8560 0.8560 0.8560 0.8560 0.8560
2805.255004 0.8560 0.8560 0.8560 0.8560 0.8560
2809.931268 0.8560 0.8560 0.8560 0.8560 0.8560
2814.607532 0.8560 0.8560 0.8560 0.8560 0.8560
2819.283797 0.8560 0.8560 0.8560 0.8560 0.8560
2823.960061 0.8560 0.8560 0.8560 0.8560 0.8560
2828.636326 0.8560 0.8560 0.8560 0.8560 0.8560
2833.312590 0.8560 0.8560 0.8560 0.8560 0.8560
2837.988854 0.8560 0.8560 0.8560 0.8562 0.8567
2842.665119 0.8570 0.8570 0.8570 0.8570 0.8570
2847.341383 0.8570 0.8570 0.8570 0.8568 0.8563
2852.017648 0.8560 0.8560 0.8560 0.8560 0.8560
2856.693912 0.8560 0.8556 0.8546 0.8538 0.8533
2861.370177 0.8530 0.8530 0.8528 0.8523 0.8518
2866.046441 0.8513 0.8506 0.8496 0.8490 0.8490
2870.722705 0.8490 0.8490 0.8488 0.8483 0.8478
2875.398970 0.8473 0.8470 0.8470 0.8468 0.8463
2880.075234 0.8460 0.8460 0.8460 0.8460 0.8460
2884.751499 0.8460 0.8460 0.8460 0.8460 0.8460
2889.427763 0.8462 0.8467 0.8470 0.8470 0.8470
2894.104028 0.8470 0.8470 0.8470 0.8470 0.8470
2898.780292 0.8472 0.8477 0.8480 0.8480 0.8482
2903.456556 0.8487 0.8490 0.8490 0.8490 0.8490
2908.132821 0.8494 0.8504 0.8510 0.8510 0.8510
2912.809085 0.8510 0.8506 0.8496 0.8490 0.8490
2917.485350 0.8488 0.8483 0.8478 0.8473 0.8464
2922.161614 0.8449 0.8438 0.8433 0.8424 0.8409
2926.837878 0.8398 0.8393 0.8386 0.8376 0.8370
2931.514143 0.8370 0.8370 0.8370 0.8366 0.8356
2936.190407 0.8350 0.8350 0.8350 0.8350 0.8348
2940.866672 0.8343 0.8340 0.8340 0.8340 0.8340
2945.542936 0.8338 0.8333 0.8330 0.8330 0.8328
2950.219201 0.8323 0.8316 0.8306 0.8300 0.8300
2954.895465 0.8300 0.8300 0.8298 0.8293 0.8290
2959.571729 0.8290 0.8290 0.8290 0.8288 0.8283
2964.247994 0.8280 0.8280 0.8282 0.8287 0.8290
2968.924258 0.8290 0.8290 0.8290 0.8290 0.8290
2973.600523 0.8292 0.8297 0.8300 0.8300 0.8305
2978.276787 0.8320 0.8330 0.8330 0.8332 0.8337
2982.953052 0.8342 0.8347 0.8353 0.8363 0.8370
2987.629316 0.8370 0.8372 0.8377 0.8382 0.8387
2992.305580 0.8395 0.8410 0.8423 0.8433 0.8443
2996.981845 0.8453 0.8460 0.8460 0.8462 0.8467
3001.658109 0.8473 0.8483 0.8495 0.8510 0.8520
3006.334374 0.8520 0.8520 0.8520 0.8520 0.8520
3011.010638 0.8520 0.8520 0.8520 0.8520 0.8518
3015.686902 0.8513 0.8510 0.8510 0.8507 0.8497
3020.363167 0.8490 0.8490 0.8488 0.8483 0.8480
3025.039431 0.8480 0.8480 0.8480 0.8480 0.8480
3029.715696 0.8480 0.8480 0.8480 0.8480 0.8480
3034.391960 0.8480 0.8480 0.8480 0.8480 0.8480
3039.068225 0.8482 0.8487 0.8490 0.8490 0.8490
3043.744489 0.8490 0.8490 0.8490 0.8490 0.8490
3048.420753 0.8490 0.8490 0.8493 0.8503 0.8510
3053.097018 0.8510 0.8510 0.8510 0.8510 0.8510
3057.773282 0.8510 0.8510 0.8510 0.8510 0.8511
3062.449547 0.8516 0.8520 0.8520 0.8520 0.8520
3067.125811 0.8520 0.8520 0.8520 0.8520 0.8520
3071.802076 0.8520 0.8520 0.8520 0.8520 0.8520
3076.478340 0.8520 0.8520 0.8520 0.8520 0.8520
3081.154604 0.8520 0.8520 0.8520 0.8520 0.8520
3085.830869 0.8520 0.8520 0.8520 0.8520 0.8520
3090.507133 0.8520 0.8520 0.8520 0.8519 0.8514
3095.183398 0.8510 0.8510 0.8510 0.8510 0.8510
3099.859662 0.8510 0.8510 0.8510 0.8510 0.8510
3104.535926 0.8507 0.8497 0.8490 0.8490 0.8490
3109.212191 0.8490 0.8490 0.8490 0.8490 0.8490
3113.888455 0.8490 0.8490 0.8489 0.8484 0.8480
3118.564720 0.8480 0.8480 0.8480 0.8480 0.8480
3123.240984 0.8480 0.8480 0.8480 0.8480 0.8480
3127.917249 0.8480 0.8480 0.8480 0.8480 0.8480
3132.593513 0.8479 0.8474 0.8470 0.8470 0.8470
3137.269777 0.8470 0.8469 0.8464 0.8460 0.8460
3141.946042 0.8460 0.8460 0.8458 0.8448 0.8440
3146.622306 0.8440 0.8440 0.8440 0.8442 0.8452
3151.298571 0.8458 0.8448 0.8440 0.8440 0.8439
3155.974835 0.8434 0.8429 0.8424 0.8421 0.8426
3160.651100 0.8431 0.8436 0.8440 0.8440 0.8440
3165.327364 0.8440 0.8440 0.8440 0.8440 0.8440
3170.003628 0.8439 0.8434 0.8429 0.8424 0.8416
3174.679893 0.8396 0.8376 0.8356 0.8340 0.8340
3179.356157 0.8350 0.8395 0.8433 0.8448 0.8460
3184.032422 0.8460 0.8460 0.8460 0.8458 0.8448
3188.708686 0.8439 0.8434 0.8427 0.8412 0.8393
3193.384950 0.8358 0.8329 0.8324 0.8313 0.8278
3198.061215 0.8257 0.8292 0.8331 0.8380 0.8421
3202.737479 0.8426 0.8429 0.8424 0.8420 0.8420
3207.413744 0.8420 0.8420 0.8416 0.8396 0.8375
3212.090008 0.8350 0.8319 0.8259 0.8200 0.8144
3216.766273 0.8100 0.8100 0.8113 0.8178 0.8241
3221.442537 0.8296 0.8344 0.8364 0.8384 0.8404
3226.118801 0.8420 0.8420 0.8420 0.8420 0.8417
3230.795066 0.8402 0.8373 0.8279 0.8184 0.8094
3235.471330 0.8020 0.8020 0.8033 0.8103 0.8182
3240.147595 0.8302 0.8404 0.8424 0.8440 0.8440
3244.823859 0.8439 0.8434 0.8429 0.8424 0.8420
3249.500124 0.8420 0.8416 0.8391 0.8356 0.8265
3254.176388 0.8179 0.8114 0.8060 0.8060 0.8074
3258.852652 0.8159 0.8243 0.8317 0.8382 0.8392
3263.528917 0.8400 0.8400 0.8402 0.8412 0.8420
3268.205181 0.8420 0.8417 0.8397 0.8374 0.8334
3272.881446 0.8292 0.8242 0.8192 0.8142 0.8105
3277.557710 0.8135 0.8164 0.8189 0.8221 0.8290
3282.233974 0.8352 0.8367 0.8380 0.8380 0.8380
3286.910239 0.8380 0.8379 0.8374 0.8368 0.8353
3291.586503 0.8332 0.8277 0.8221 0.8161 0.8109
3296.262768 0.8104 0.8100 0.8100 0.8116 0.8231
3300.939032 0.8331 0.8336 0.8340 0.8340 0.8340
3305.615297 0.8340 0.8340 0.8340 0.8339 0.8334
3310.291561 0.8330 0.8330 0.8329 0.8324 0.8317
3314.967825 0.8297 0.8278 0.8263 0.8249 0.8239
3319.644090 0.8228 0.8213 0.8199 0.8194 0.8188
3324.320354 0.8168 0.8149 0.8144 0.8138 0.8123
3328.996619 0.8060 0.7665 0.7250 0.6691 0.6132
3333.672883 0.5573 0.5132 0.5571 0.5969 0.6043
3338.349148 0.6199 0.7003 0.7733 0.7853 0.7966
3343.025412 0.8021 0.8075 0.8119 0.8163 0.8199
3347.701676 0.8231 0.8236 0.8233 0.8168 0.8111
3352.377941 0.8116 0.8123 0.8153 0.8182 0.8196
3357.054205 0.8210 0.8210 0.8211 0.8221 0.8230
3361.730470 0.8235 0.8240 0.8240 0.8240 0.8235
3366.406734 0.8227 0.8202 0.8180 0.8180 0.8179
3371.082998 0.8169 0.8159 0.8149 0.8137 0.8102
3375.759263 0.8069 0.8059 0.8052 0.8072 0.8091
3380.435527 0.8101 0.8113 0.8148 0.8183 0.8218
3385.111792 0.8250 0.8255 0.8260 0.8260 0.8258
3389.788056 0.8233 0.8201 0.8086 0.7973 0.7878
3394.464321 0.7790 0.7790 0.7794 0.7849 0.7911
3399.140585 0.8076 0.8231 0.8241 0.8250 0.8250
3403.816849 0.8250 0.8250 0.8250 0.8250 0.8250
3408.493114 0.8250 0.8250 0.8245 0.8230 0.8086
3413.169378 0.7940 0.7780 0.7622 0.7487 0.7360
3417.845643 0.7360 0.7372 0.7602 0.7832 0.8085
3422.521907 0.8320 0.8325 0.8330 0.8330 0.8328
3427.198171 0.8288 0.8247 0.8192 0.8128 0.7898
3431.874436 0.7672 0.7518 0.7370 0.7370 0.7382
3436.550700 0.7662 0.7935 0.8065 0.8192 0.8237
3441.226965 0.8280 0.8280 0.8280 0.8270 0.8260
3445.903229 0.8250 0.8239 0.8214 0.8180 0.7930
3450.579494 0.7686 0.7571 0.7460 0.7460 0.7470
3455.255758 0.7815 0.8151 0.8206 0.8260 0.8270
3459.932022 0.8280 0.8285 0.8290 0.8295 0.8300
3464.608287 0.8310 0.8320 0.8325 0.8320 0.7965
3469.284551 0.7620 0.7620 0.7628 0.7982 0.8330
3473.960816 0.8335 0.8340 0.8345 0.8350 0.8350
3478.637080 0.8350 0.8350 0.8350 0.8345 0.8337
3483.313345 0.8192 0.8050 0.8035 0.8020 0.8030
3487.989609 0.8041 0.8096 0.8150 0.8195 0.8240
3492.665873 0.8270 0.8300 0.8335 0.8370 0.8360
3497.342138 0.8350 0.8345 0.8340 0.8330 0.8320
3502.018402 0.8290 0.8260 0.8250 0.8240 0.8235
3506.694667 0.8230 0.8235 0.8240 0.8265 0.8290
3511.370931 0.8330 0.8370 0.8380 0.8390 0.8395
3516.047195 0.8400 0.8400 0.8400 0.8395 0.8390
3520.723460 0.8385 0.8380 0.8380 0.8380 0.8380
3525.399724 0.8380 0.8380 0.8380 0.8385 0.8390
3530.075989 0.8395 0.8400 0.8410 0.8420 0.8420
3534.752253 0.8420 0.8425 0.8430 0.8435 0.8440
3539.428518 0.8450 0.8460 0.8460 0.8460 0.8460
3544.104782 0.8460 0.8465 0.8470 0.8470 0.8470
3548.781046 0.8470 0.8470 0.8470 0.8470 0.8475
3553.457311 0.8480 0.8485 0.8490 0.8490 0.8490
3558.133575 0.8490 0.8490 0.8500 0.8510 0.8515
3562.809840 0.8520 0.8520 0.8520 0.8525 0.8530
3567.486104 0.8530 0.8530 0.8530 0.8530 0.8530
3572.162369 0.8530 0.8530 0.8530 0.8535 0.8540
3576.838633 0.8540 0.8540 0.8540 0.8540 0.8550
3581.514897 0.8560 0.8560 0.8560 0.8560 0.8560
3586.191162 0.8560 0.8560 0.8560 0.8560 0.8560
3590.867426 0.8560 0.8560 0.8560 0.8565 0.8570
3595.543691 0.8570 0.8570 0.8570 0.8570 0.8570
3600.219955 0.8570 0.8570 0.8570 0.8570 0.8570
3604.896219 0.8570 0.8570 0.8570 0.8570 0.8570
3609.572484 0.8570 0.8570 0.8570 0.8570 0.8570
3614.248748 0.8565 0.8560 0.8560 0.8560 0.8560
3618.925013 0.8560 0.8560 0.8560 0.8560 0.8560
3623.601277 0.8560 0.8560 0.8560 0.8560 0.8560
3628.277542 0.8560 0.8560 0.8560 0.8560 0.8560
3632.953806 0.8560 0.8560 0.8551 0.8541 0.8540
3637.630070 0.8540 0.8540 0.8540 0.8540 0.8540
3642.306335 0.8549 0.8559 0.8565 0.8570 0.8570
3646.982599 0.8570 0.8570 0.8570 0.8570 0.8570
3651.658864 0.8570 0.8570 0.8565 0.8560 0.8560
3656.335128 0.8560 0.8565 0.8569 0.8574 0.8579
3661.011393 0.8589 0.8599 0.8600 0.8600 0.8600
3665.687657 0.8600 0.8600 0.8600 0.8586 0.8571
3670.363921 0.8557 0.8542 0.8540 0.8540 0.8540
3675.040186 0.8540 0.8540 0.8540 0.8540 0.8540
3679.716450 0.8536 0.8531 0.8526 0.8521 0.8516
3684.392715 0.8511 0.8501 0.8491 0.8499 0.8509
3689.068979 0.8523 0.8538 0.8549 0.8559 0.8560
3693.745243 0.8560 0.8560 0.8560 0.8560 0.8560
3698.421508 0.8560 0.8560 0.8547 0.8532 0.8530
3703.097772 0.8530 0.8530 0.8530 0.8530 0.8530
3707.774037 0.8530 0.8530 0.8534 0.8539 0.8540
3712.450301 0.8540 0.8540 0.8540 0.8540 0.8540
3717.126566 0.8540 0.8540 0.8549 0.8559 0.8560
3721.802830 0.8560 0.8560 0.8560 0.8564 0.8569
3726.479094 0.8570 0.8570 0.8574 0.8579 0.8580
3731.155359 0.8580 0.8580 0.8580 0.8580 0.8580
3735.831623 0.8580 0.8580 0.8580 0.8580 0.8576
3740.507888 0.8571 0.8570 0.8570 0.8570 0.8570
3745.184152 0.8566 0.8561 0.8560 0.8560 0.8552
3749.860417 0.8542 0.8536 0.8531 0.8530 0.8530
3754.536681 0.8530 0.8530 0.8530 0.8530 0.8530
3759.212945 0.8530 0.8530 0.8530 0.8530 0.8530
3763.889210 0.8530 0.8530 0.8530 0.8530 0.8530
3768.565474 0.8530 0.8530 0.8530 0.8530 0.8530
3773.241739 0.8530 0.8530 0.8530 0.8530 0.8530
3777.918003 0.8530 0.8530 0.8530 0.8530 0.8530
3782.594267 0.8530 0.8530 0.8530 0.8530 0.8530
3787.270532 0.8530 0.8530 0.8530 0.8530 0.8530
3791.946796 0.8530 0.8530 0.8530 0.8530 0.8530
3796.623061 0.8530 0.8530 0.8530
##END=
