##TITLE=Acetone
##JCAMP-DX=4.24
##DATA TYPE=INFRARED SPECTRUM
##CLASS=COBLENTZ
##ORIGIN=DOW CHEMICAL COMPANY
##OWNER=COBLENTZ SOC.
Collection (C) 2018 copyright by the U.S. Secretary of Commerce
on behalf of the United States of America. All rights reserved.
##DATE=1964
##NAMES=2-PROPANONE
##CAS REGISTRY NO=67-64-1
##MOLFORM=C3 H6 O
##SOURCE REFERENCE=COBLENTZ NO. 08767
##$NIST SOURCE=COBLENTZ
##$NIST IMAGE=cob8767
##SPECTROMETER/DATA SYSTEM=DOW KBr FOREPRISM-GRATING
##INSTRUMENT PARAMETERS=GRATING CHANGED AT 5.0, 7.5, 15.0 MICRON
##STATE=GAS (100 mmHg, N2 ADDED, TOTAL PRESSURE 600 mmHg)
##PATH LENGTH=5 CM
$$SPECTRAL CONTAMINATION DUE TO ALLYL BROMIDE AROUND 680 CM^-^1
##SAMPLING PROCEDURE=TRANSMISSION
##RESOLUTION=2
##DATA PROCESSING=DIGITIZED BY COBLENTZ SOCIETY (BATCH I) FROM HARD COPY
##XUNITS=1/CM
##YUNITS=TRANSMITTANCE
##XLABEL=Wavenumbers (cm-1)
##YLABEL=% Transmission
##XFACTOR=1
##YFACTOR=1
##DELTAX=1
##FIRSTX=450
##LASTX=3798
##FIRSTY=0.9318
##MAXX=3798
##MINX=450
##MAXY=0.9332
##MINY=0.009
##NPOINTS=3349
##XYDATA=(X++(Y..Y))
450.000000 0.9318 0.9296 0.9273 0.9253 0.9332
455.000000 0.9215 0.9196 0.9177 0.9159 0.9140
460.000000 0.9120 0.9092 0.9063 0.9035 0.9006
465.000000 0.8978 0.8949 0.8921 0.8885 0.8845
470.000000 0.8806 0.8767 0.8727 0.8688 0.8650
475.000000 0.8616 0.8583 0.8550 0.8517 0.8488
480.000000 0.8467 0.8445 0.8433 0.8463 0.8417
485.000000 0.8547 0.8584 0.8618 0.8650 0.8667
490.000000 0.8668 0.8662 0.8653 0.8691 0.8628
495.000000 0.8599 0.8560 0.8481 0.8351 0.8131
500.000000 0.7971 0.7821 0.7701 0.7581 0.7411
505.000000 0.7078 0.6744 0.6411 0.6077 0.5744
510.000000 0.5410 0.5077 0.4743 0.4410 0.4189
515.000000 0.3682 0.3597 0.3576 0.3576 0.3576
520.000000 0.3736 0.3937 0.4139 0.4303 0.4319
525.000000 0.4123 0.3750 0.3378 0.3005 0.2633
530.000000 0.2488 0.3194 0.4824 0.4827 0.4852
535.000000 0.4603 0.4475 0.4347 0.4219 0.4091
540.000000 0.3962 0.3903 0.3900 0.3929 0.4042
545.000000 0.4138 0.4432 0.4782 0.5127 0.5472
550.000000 0.5817 0.6162 0.6507 0.6851 0.7197
555.000000 0.7560 0.7658 0.8225 0.8340 0.8453
560.000000 0.8575 0.8675 0.8725 0.8771 0.8805
565.000000 0.8838 0.8871 0.8898 0.8924 0.8950
570.000000 0.8970 0.8984 0.8998 0.9010 0.9021
575.000000 0.9034 0.9045 0.9053 0.9058 0.9063
580.000000 0.9068 0.9074 0.9077 0.9080 0.9083
585.000000 0.9086 0.9089 0.9093 0.9100 0.9108
590.000000 0.9123 0.9096 0.9058 0.9017 0.8978
595.000000 0.9009 0.9037 0.9062 0.9086 0.9103
600.000000 0.9108 0.9112 0.9111 0.9116 0.9118
605.000000 0.9121 0.9123 0.9124 0.9124 0.9125
610.000000 0.9125 0.9127 0.9127 0.9127 0.9127
615.000000 0.9127 0.9127 0.9128 0.9128 0.9128
620.000000 0.9131 0.9133 0.9135 0.9137 0.9139
625.000000 0.9141 0.9143 0.9144 0.9144 0.9143
630.000000 0.9143 0.9143 0.9142 0.9142 0.9142
635.000000 0.9141 0.9141 0.9140 0.9139 0.9138
640.000000 0.9137 0.9136 0.9135 0.9134 0.9133
645.000000 0.9132 0.9131 0.9130 0.9128 0.9125
650.000000 0.9124 0.9121 0.9120 0.9118 0.9117
655.000000 0.9115 0.9113 0.9112 0.9112 0.9113
660.000000 0.9114 0.9115 0.9121 0.9167 0.9243
665.000000 0.9300 0.9278 0.9203 0.9128 0.9075
670.000000 0.9058 0.9043 0.9028 0.9010 0.8988
675.000000 0.8966 0.8941 0.8914 0.8886 0.8857
680.000000 0.8818 0.8778 0.8739 0.8704 0.8686
685.000000 0.8668 0.8649 0.8638 0.8638 0.8642
690.000000 0.8650 0.8654 0.8656 0.8643 0.8623
695.000000 0.8602 0.8580 0.8581 0.8583 0.8591
700.000000 0.8617 0.8652 0.8691 0.8734 0.8775
705.000000 0.8815 0.8849 0.8866 0.8868 0.8870
710.000000 0.8865 0.8851 0.8838 0.8820 0.8799
715.000000 0.8777 0.8756 0.8736 0.8716 0.8697
720.000000 0.8677 0.8658 0.8640 0.8621 0.8605
725.000000 0.8587 0.8574 0.8565 0.8557 0.8549
730.000000 0.8540 0.8535 0.8535 0.8534 0.8533
735.000000 0.8533 0.8533 0.8538 0.8543 0.8548
740.000000 0.8553 0.8555 0.8558 0.8559 0.8552
745.000000 0.8545 0.8539 0.8532 0.8521 0.8511
750.000000 0.8500 0.8488 0.8477 0.8466 0.8455
755.000000 0.8444 0.8433 0.8421 0.8412 0.8401
760.000000 0.8390 0.8380 0.8371 0.8364 0.8347
765.000000 0.8349 0.8341 0.8342 0.8346 0.8350
770.000000 0.8353 0.8357 0.8362 0.8367 0.8371
775.000000 0.8375 0.8381 0.8385 0.8390 0.8402
780.000000 0.8416 0.8430 0.8451 0.8474 0.8497
785.000000 0.8516 0.8532 0.8548 0.8564 0.8580
790.000000 0.8596 0.8613 0.8634 0.8655 0.8675
795.000000 0.8702 0.8735 0.8768 0.8815 0.8863
800.000000 0.8906 0.8946 0.8986 0.9028 0.9070
805.000000 0.9109 0.9131 0.9153 0.9163 0.9167
810.000000 0.9167 0.9167 0.9166 0.9166 0.9166
815.000000 0.9165 0.9165 0.9165 0.9164 0.9163
820.000000 0.9162 0.9160 0.9160 0.9159 0.9157
825.000000 0.9156 0.9153 0.9151 0.9149 0.9147
830.000000 0.9145 0.9142 0.9140 0.9138 0.9133
835.000000 0.9128 0.9121 0.9117 0.9111 0.9106
840.000000 0.9101 0.9095 0.9090 0.9082 0.9071
845.000000 0.9063 0.9053 0.9043 0.9034 0.9021
850.000000 0.9002 0.8982 0.8962 0.8936 0.8909
855.000000 0.8883 0.8847 0.8809 0.8760 0.8711
860.000000 0.8659 0.8606 0.8552 0.8484 0.8403
865.000000 0.8316 0.8223 0.8132 0.8051 0.7968
870.000000 0.7880 0.7786 0.7675 0.7649 0.7644
875.000000 0.7639 0.7633 0.7626 0.7611 0.7583
880.000000 0.7537 0.7465 0.7076 0.7019 0.7025
885.000000 0.7043 0.7061 0.7062 0.7061 0.7061
890.000000 0.6889 0.6707 0.6604 0.6606 0.6608
895.000000 0.6624 0.6625 0.6625 0.6634 0.6644
900.000000 0.6655 0.6665 0.6686 0.6706 0.6726
905.000000 0.6749 0.6775 0.6801 0.6828 0.6855
910.000000 0.6897 0.6942 0.6986 0.7031 0.7078
915.000000 0.7125 0.7174 0.7247 0.7330 0.7414
920.000000 0.7501 0.7569 0.7578 0.7581 0.7582
925.000000 0.7583 0.7595 0.7638 0.7715 0.7815
930.000000 0.7964 0.8060 0.8157 0.8256 0.8332
935.000000 0.8388 0.8428 0.8460 0.8492 0.8524
940.000000 0.8554 0.8575 0.8599 0.8621 0.8643
945.000000 0.8661 0.8674 0.8687 0.8699 0.8712
950.000000 0.8725 0.8731 0.8737 0.8743 0.8748
955.000000 0.8754 0.8760 0.8765 0.8767 0.8767
960.000000 0.8768 0.8768 0.8768 0.8767 0.8765
965.000000 0.8762 0.8760 0.8758 0.8755 0.8753
970.000000 0.8750 0.8745 0.8741 0.8736 0.8732
975.000000 0.8733 0.8735 0.8736 0.8739 0.8744
980.000000 0.8748 0.8753 0.8757 0.8760 0.8760
985.000000 0.8760 0.8774 0.8790 0.8809 0.8830
990.000000 0.8845 0.8858 0.8871 0.8885 0.8899
995.000000 0.8912 0.8921 0.8928 0.8937 0.8945
1000.000000 0.8952 0.8960 0.8967 0.8971 0.8975
1005.000000 0.8978 0.8983 0.8988 0.8992 0.8996
1010.000000 0.9001 0.9006 0.9011 0.9015 0.9020
1015.000000 0.9025 0.9032 0.9038 0.9044 0.9044
1020.000000 0.9044 0.9044 0.9041 0.9040 0.9037
1025.000000 0.9033 0.9030 0.9025 0.9023 0.9018
1030.000000 0.9015 0.9008 0.8998 0.8989 0.8978
1035.000000 0.8968 0.8960 0.8952 0.8945 0.8938
1040.000000 0.8931 0.8924 0.8918 0.8912 0.8907
1045.000000 0.8901 0.8896 0.8890 0.8881 0.8871
1050.000000 0.8863 0.8853 0.8844 0.8835 0.8824
1055.000000 0.8809 0.8794 0.8778 0.8763 0.8748
1060.000000 0.8732 0.8717 0.8698 0.8675 0.8655
1065.000000 0.8634 0.8613 0.8591 0.8568 0.8541
1070.000000 0.8514 0.8488 0.8461 0.8451 0.8443
1075.000000 0.8435 0.8430 0.8425 0.8421 0.8413
1080.000000 0.8392 0.8371 0.8309 0.8244 0.8162
1085.000000 0.8074 0.7996 0.7558 0.6961 0.6621
1090.000000 0.6656 0.6900 0.7265 0.7628 0.7994
1095.000000 0.8039 0.8039 0.8036 0.8032 0.8024
1100.000000 0.8014 0.8004 0.7992 0.7975 0.7961
1105.000000 0.7957 0.7951 0.7947 0.7968 0.7991
1110.000000 0.8033 0.8083 0.8144 0.8191 0.8233
1115.000000 0.8275 0.8316 0.8356 0.8396 0.8436
1120.000000 0.8475 0.8516 0.8553 0.8584 0.8614
1125.000000 0.8645 0.8675 0.8704 0.8727 0.8750
1130.000000 0.8773 0.8796 0.8817 0.8830 0.8842
1135.000000 0.8855 0.8868 0.8880 0.8888 0.8895
1140.000000 0.8903 0.8910 0.8917 0.8918 0.8920
1145.000000 0.8921 0.8921 0.8907 0.8918 0.8916
1150.000000 0.8914 0.8911 0.8904 0.8896 0.8888
1155.000000 0.8878 0.8867 0.8852 0.8836 0.8814
1160.000000 0.8789 0.8764 0.8732 0.8701 0.8668
1165.000000 0.8637 0.8587 0.8530 0.8464 0.8397
1170.000000 0.8331 0.8221 0.8072 0.7942 0.7818
1175.000000 0.7689 0.7553 0.7418 0.7288 0.7157
1180.000000 0.7019 0.6872 0.6725 0.6522 0.5382
1185.000000 0.4665 0.4260 0.4003 0.3426 0.2919
1190.000000 0.2321 0.1722 0.1037 0.0770 0.0626
1195.000000 0.0548 0.0469 0.0412 0.0355 0.0311
1200.000000 0.0301 0.0298 0.0296 0.0327 0.0336
1205.000000 0.0343 0.0348 0.0349 0.0342 0.0334
1210.000000 0.0316 0.0272 0.0196 0.0187 0.0183
1215.000000 0.0183 0.0285 0.0408 0.0530 0.0609
1220.000000 0.0598 0.0573 0.0475 0.0379 0.0296
1225.000000 0.0263 0.0242 0.0238 0.0223 0.0260
1230.000000 0.0283 0.0321 0.0386 0.0526 0.0704
1235.000000 0.0916 0.1092 0.1266 0.1829 0.3182
1240.000000 0.3614 0.4449 0.5455 0.5780 0.5918
1245.000000 0.6057 0.6333 0.6528 0.6708 0.7415
1250.000000 0.7697 0.7987 0.8262 0.8428 0.8509
1255.000000 0.8560 0.8599 0.8623 0.8646 0.8668
1260.000000 0.8689 0.8709 0.8728 0.8748 0.8753
1265.000000 0.8758 0.8761 0.8761 0.8761 0.8761
1270.000000 0.8758 0.8756 0.8754 0.8752 0.8750
1275.000000 0.8743 0.8735 0.8727 0.8723 0.8724
1280.000000 0.8728 0.8732 0.8723 0.8682 0.8641
1285.000000 0.8605 0.8578 0.8556 0.8537 0.8520
1290.000000 0.8512 0.8503 0.8495 0.8478 0.8457
1295.000000 0.8423 0.8389 0.8354 0.8320 0.8278
1300.000000 0.8238 0.8197 0.8155 0.8111 0.8069
1305.000000 0.8028 0.7985 0.7941 0.7890 0.7839
1310.000000 0.7788 0.7725 0.7658 0.7591 0.7525
1315.000000 0.7451 0.7372 0.7293 0.7214 0.7101
1320.000000 0.6930 0.6760 0.6614 0.6469 0.6329
1325.000000 0.6191 0.6053 0.5802 0.5498 0.5191
1330.000000 0.4884 0.4577 0.4351 0.4187 0.3532
1335.000000 0.3452 0.3418 0.3382 0.3322 0.2134
1340.000000 0.1893 0.1754 0.1598 0.1386 0.1175
1345.000000 0.0931 0.0756 0.0681 0.0605 0.0525
1350.000000 0.0442 0.0398 0.0365 0.0353 0.0354
1355.000000 0.0354 0.0358 0.0356 0.0352 0.0327
1360.000000 0.0304 0.0281 0.0259 0.0235 0.0213
1365.000000 0.0193 0.0193 0.0194 0.0201 0.0208
1370.000000 0.0214 0.0226 0.0236 0.0249 0.0261
1375.000000 0.0274 0.0287 0.0309 0.0330 0.0368
1380.000000 0.0411 0.0496 0.0597 0.0733 0.0872
1385.000000 0.1007 0.1387 0.1661 0.1934 0.2208
1390.000000 0.2481 0.2755 0.3028 0.3390 0.3600
1395.000000 0.3868 0.3994 0.4024 0.4034 0.4047
1400.000000 0.4047 0.4047 0.4066 0.4023 0.3989
1405.000000 0.3955 0.3918 0.3882 0.3843 0.3790
1410.000000 0.3716 0.3641 0.3547 0.3453 0.3392
1415.000000 0.3341 0.3290 0.3240 0.3190 0.3132
1420.000000 0.3070 0.2999 0.2938 0.2915 0.2913
1425.000000 0.2918 0.2923 0.2932 0.2942 0.2952
1430.000000 0.2925 0.2802 0.2679 0.2650 0.2644
1435.000000 0.2656 0.2701 0.2720 0.2729 0.2733
1440.000000 0.2765 0.2803 0.2834 0.2859 0.2864
1445.000000 0.2876 0.2890 0.2965 0.3113 0.3259
1450.000000 0.3408 0.3523 0.3523 0.3151 0.2819
1455.000000 0.2660 0.2652 0.3706 0.3970 0.4030
1460.000000 0.4075 0.4118 0.4424 0.4650 0.4770
1465.000000 0.4840 0.4892 0.4901 0.4910 0.4918
1470.000000 0.4927 0.4938 0.4960 0.4992 0.5255
1475.000000 0.5426 0.5507 0.5557 0.5793 0.5933
1480.000000 0.6108 0.6179 0.6226 0.6287 0.6408
1485.000000 0.6494 0.6571 0.6647 0.6721 0.6775
1490.000000 0.6810 0.6817 0.6825 0.6833 0.6840
1495.000000 0.6848 0.6856 0.6865 0.6890 0.6928
1500.000000 0.6968 0.7014 0.7068 0.7122 0.7139
1505.000000 0.7143 0.7125 0.7101 0.7076 0.7060
1510.000000 0.7053 0.7047 0.7047 0.7047 0.7047
1515.000000 0.7047 0.7048 0.7050 0.7051 0.7053
1520.000000 0.7054 0.7055 0.7058 0.7061 0.7065
1525.000000 0.7069 0.7074 0.7076 0.7081 0.7086
1530.000000 0.7092 0.7097 0.7101 0.7108 0.7118
1535.000000 0.7128 0.7144 0.7160 0.7199 0.7231
1540.000000 0.7231 0.7225 0.7221 0.7215 0.7210
1545.000000 0.7206 0.7205 0.7203 0.7208 0.7235
1550.000000 0.7264 0.7301 0.7338 0.7375 0.7411
1555.000000 0.7446 0.7471 0.7489 0.7488 0.7487
1560.000000 0.7472 0.7480 0.7486 0.7493 0.7511
1565.000000 0.7528 0.7551 0.7581 0.7608 0.7641
1570.000000 0.7674 0.7707 0.7741 0.7767 0.7792
1575.000000 0.7817 0.7842 0.7867 0.7890 0.7911
1580.000000 0.7935 0.7958 0.7980 0.8003 0.8025
1585.000000 0.8048 0.8068 0.8089 0.8108 0.8128
1590.000000 0.8149 0.8169 0.8191 0.8212 0.8233
1595.000000 0.8254 0.8275 0.8295 0.8316 0.8337
1600.000000 0.8358 0.8378 0.8398 0.8418 0.8438
1605.000000 0.8451 0.8459 0.8468 0.8475 0.8484
1610.000000 0.8493 0.8493 0.8494 0.8495 0.8495
1615.000000 0.8496 0.8497 0.8496 0.8496 0.8492
1620.000000 0.8487 0.8483 0.8478 0.8474 0.8468
1625.000000 0.8460 0.8452 0.8444 0.8436 0.8428
1630.000000 0.8420 0.8411 0.8402 0.8393 0.8383
1635.000000 0.8374 0.8365 0.8355 0.8345 0.8334
1640.000000 0.8321 0.8311 0.8299 0.8288 0.8275
1645.000000 0.8263 0.8249 0.8235 0.8221 0.8208
1650.000000 0.8194 0.8181 0.8168 0.8158 0.8146
1655.000000 0.8139 0.8132 0.8125 0.8119 0.8117
1660.000000 0.8105 0.8071 0.8033 0.7980 0.7931
1665.000000 0.7890 0.7849 0.7808 0.7768 0.7728
1670.000000 0.7688 0.7648 0.7601 0.7540 0.7478
1675.000000 0.7415 0.7349 0.7278 0.7208 0.7139
1680.000000 0.7068 0.6999 0.6928 0.6849 0.6751
1685.000000 0.6653 0.6555 0.6428 0.6292 0.6017
1690.000000 0.5885 0.5753 0.5624 0.5498 0.4726
1695.000000 0.4560 0.3721 0.3412 0.3194 0.3025
1700.000000 0.2837 0.2571 0.2341 0.2176 0.1917
1705.000000 0.1741 0.1558 0.1216 0.0941 0.0717
1710.000000 0.0513 0.0402 0.0301 0.0229 0.0178
1715.000000 0.0159 0.0140 0.0122 0.0112 0.0104
1720.000000 0.0099 0.0096 0.0095 0.0095 0.0094
1725.000000 0.0093 0.0092 0.0091 0.0090 0.0090
1730.000000 0.0091 0.0092 0.0092 0.0093 0.0094
1735.000000 0.0094 0.0095 0.0096 0.0097 0.0099
1740.000000 0.0100 0.0101 0.0102 0.0103 0.0104
1745.000000 0.0107 0.0109 0.0112 0.0114 0.0117
1750.000000 0.0124 0.0130 0.0140 0.0151 0.0162
1755.000000 0.0173 0.0194 0.0216 0.0256 0.0314
1760.000000 0.0376 0.0440 0.0504 0.0560 0.0609
1765.000000 0.0655 0.0699 0.0759 0.0842 0.0926
1770.000000 0.1010 0.1094 0.1177 0.1295 0.1442
1775.000000 0.1570 0.1707 0.1864 0.2032 0.2245
1780.000000 0.2367 0.2480 0.2591 0.2701 0.2827
1785.000000 0.2960 0.3167 0.3342 0.3468 0.3595
1790.000000 0.4166 0.4309 0.4453 0.4585 0.4708
1795.000000 0.4831 0.4947 0.5064 0.5180 0.5512
1800.000000 0.5868 0.6119 0.6283 0.6446 0.6575
1805.000000 0.6692 0.6807 0.6936 0.7106 0.7276
1810.000000 0.7368 0.7449 0.7530 0.7610 0.7669
1815.000000 0.7712 0.7755 0.7798 0.7841 0.7883
1820.000000 0.7910 0.7938 0.7965 0.7993 0.8021
1825.000000 0.8048 0.8075 0.8101 0.8128 0.8155
1830.000000 0.8178 0.8201 0.8221 0.8244 0.8266
1835.000000 0.8287 0.8309 0.8330 0.8353 0.8378
1840.000000 0.8404 0.8430 0.8456 0.8471 0.8485
1845.000000 0.8499 0.8512 0.8525 0.8538 0.8549
1850.000000 0.8560 0.8571 0.8582 0.8591 0.8598
1855.000000 0.8605 0.8613 0.8620 0.8627 0.8635
1860.000000 0.8642 0.8649 0.8656 0.8662 0.8667
1865.000000 0.8673 0.8678 0.8684 0.8690 0.8696
1870.000000 0.8701 0.8705 0.8709 0.8713 0.8716
1875.000000 0.8720 0.8724 0.8728 0.8731 0.8735
1880.000000 0.8741 0.8747 0.8753 0.8759 0.8765
1885.000000 0.8771 0.8777 0.8783 0.8789 0.8792
1890.000000 0.8795 0.8798 0.8801 0.8804 0.8807
1895.000000 0.8810 0.8811 0.8811 0.8812 0.8813
1900.000000 0.8814 0.8815 0.8816 0.8817 0.8817
1905.000000 0.8818 0.8818 0.8820 0.8821 0.8821
1910.000000 0.8821 0.8821 0.8821 0.8820 0.8823
1915.000000 0.8817 0.8816 0.8815 0.8814 0.8812
1920.000000 0.8811 0.8810 0.8809 0.8807 0.8806
1925.000000 0.8805 0.8804 0.8803 0.8801 0.8800
1930.000000 0.8800 0.8799 0.8798 0.8798 0.8797
1935.000000 0.8796 0.8796 0.8795 0.8794 0.8794
1940.000000 0.8793 0.8792 0.8791 0.8791 0.8791
1945.000000 0.8791 0.8791 0.8791 0.8791 0.8791
1950.000000 0.8791 0.8791 0.8791 0.8791 0.8790
1955.000000 0.8787 0.8785 0.8783 0.8781 0.8778
1960.000000 0.8775 0.8774 0.8771 0.8770 0.8767
1965.000000 0.8763 0.8760 0.8756 0.8752 0.8749
1970.000000 0.8745 0.8744 0.8744 0.8744 0.8744
1975.000000 0.8745 0.8746 0.8747 0.8748 0.8748
1980.000000 0.8749 0.8750 0.8751 0.8753 0.8754
1985.000000 0.8756 0.8758 0.8760 0.8762 0.8763
1990.000000 0.8765 0.8767 0.8771 0.8778 0.8785
1995.000000 0.8791 0.8800 0.8812 0.8820 0.8805
2000.000000 0.8789 0.8766 0.8743 0.8740 0.8738
2005.000000 0.8747 0.8756 0.8773 0.8790 0.8806
2010.000000 0.8823 0.8827 0.8832 0.8836 0.8841
2015.000000 0.8842 0.8843 0.8843 0.8843 0.8843
2020.000000 0.8843 0.8843 0.8843 0.8842 0.8842
2025.000000 0.8841 0.8841 0.8841 0.8841 0.8840
2030.000000 0.8840 0.8839 0.8838 0.8837 0.8836
2035.000000 0.8835 0.8834 0.8832 0.8831 0.8828
2040.000000 0.8825 0.8824 0.8821 0.8818 0.8817
2045.000000 0.8814 0.8812 0.8810 0.8808 0.8805
2050.000000 0.8803 0.8800 0.8798 0.8796 0.8794
2055.000000 0.8791 0.8789 0.8786 0.8784 0.8781
2060.000000 0.8778 0.8777 0.8775 0.8771 0.8770
2065.000000 0.8767 0.8765 0.8762 0.8760 0.8757
2070.000000 0.8755 0.8752 0.8749 0.8742 0.8735
2075.000000 0.8728 0.8721 0.8714 0.8708 0.8699
2080.000000 0.8691 0.8678 0.8666 0.8653 0.8641
2085.000000 0.8628 0.8616 0.8603 0.8590 0.8578
2090.000000 0.8566 0.8555 0.8544 0.8533 0.8523
2095.000000 0.8512 0.8502 0.8491 0.8480 0.8468
2100.000000 0.8459 0.8447 0.8436 0.8424 0.8412
2105.000000 0.8399 0.8387 0.8375 0.8363 0.8351
2110.000000 0.8339 0.8325 0.8314 0.8303 0.8292
2115.000000 0.8284 0.8275 0.8268 0.8260 0.8252
2120.000000 0.8244 0.8236 0.8228 0.8221 0.8215
2125.000000 0.8216 0.8218 0.8218 0.8215 0.8223
2130.000000 0.8225 0.8228 0.8231 0.8234 0.8238
2135.000000 0.8241 0.8245 0.8249 0.8253 0.8257
2140.000000 0.8261 0.8265 0.8268 0.8274 0.8280
2145.000000 0.8288 0.8297 0.8308 0.8320 0.8336
2150.000000 0.8353 0.8370 0.8387 0.8404 0.8421
2155.000000 0.8440 0.8458 0.8475 0.8493 0.8510
2160.000000 0.8527 0.8544 0.8562 0.8578 0.8596
2165.000000 0.8612 0.8628 0.8643 0.8658 0.8673
2170.000000 0.8688 0.8702 0.8717 0.8730 0.8743
2175.000000 0.8755 0.8768 0.8778 0.8789 0.8791
2180.000000 0.8794 0.8797 0.8800 0.8803 0.8806
2185.000000 0.8808 0.8809 0.8810 0.8810 0.8809
2190.000000 0.8808 0.8807 0.8807 0.8806 0.8805
2195.000000 0.8804 0.8804 0.8802 0.8800 0.8798
2200.000000 0.8796 0.8794 0.8792 0.8789 0.8787
2205.000000 0.8785 0.8783 0.8780 0.8778 0.8775
2210.000000 0.8774 0.8771 0.8770 0.8767 0.8764
2215.000000 0.8761 0.8759 0.8756 0.8753 0.8750
2220.000000 0.8748 0.8745 0.8742 0.8739 0.8737
2225.000000 0.8734 0.8731 0.8728 0.8725 0.8723
2230.000000 0.8720 0.8716 0.8712 0.8708 0.8705
2235.000000 0.8701 0.8698 0.8694 0.8690 0.8686
2240.000000 0.8683 0.8678 0.8675 0.8671 0.8668
2245.000000 0.8667 0.8666 0.8666 0.8667 0.8667
2250.000000 0.8668 0.8668 0.8670 0.8670 0.8671
2255.000000 0.8671 0.8671 0.8673 0.8675 0.8680
2260.000000 0.8686 0.8692 0.8698 0.8703 0.8709
2265.000000 0.8715 0.8721 0.8725 0.8732 0.8737
2270.000000 0.8743 0.8749 0.8755 0.8762 0.8768
2275.000000 0.8775 0.8783 0.8790 0.8797 0.8804
2280.000000 0.8811 0.8816 0.8821 0.8827 0.8832
2285.000000 0.8837 0.8842 0.8846 0.8851 0.8856
2290.000000 0.8861 0.8866 0.8871 0.8875 0.8881
2295.000000 0.8885 0.8890 0.8895 0.8900 0.8905
2300.000000 0.8910 0.8915 0.8920 0.8925 0.8931
2305.000000 0.8937 0.8943 0.8948 0.8954 0.8960
2310.000000 0.8966 0.8971 0.8977 0.8983 0.8989
2315.000000 0.8994 0.9000 0.9006 0.9012 0.9017
2320.000000 0.9023 0.9030 0.9037 0.9044 0.9052
2325.000000 0.9060 0.9068 0.9075 0.9082 0.9081
2330.000000 0.9080 0.9078 0.9077 0.9075 0.9074
2335.000000 0.9073 0.9071 0.9070 0.9068 0.9067
2340.000000 0.9066 0.9065 0.9064 0.9062 0.9061
2345.000000 0.9068 0.9077 0.9099 0.9121 0.9146
2350.000000 0.9170 0.9188 0.9207 0.9207 0.9207
2355.000000 0.9201 0.9195 0.9188 0.9182 0.9173
2360.000000 0.9164 0.9154 0.9144 0.9134 0.9124
2365.000000 0.9111 0.9099 0.9086 0.9073 0.9058
2370.000000 0.9044 0.9028 0.9014 0.9000 0.8987
2375.000000 0.8973 0.8959 0.8948 0.8937 0.8928
2380.000000 0.8918 0.8910 0.8902 0.8895 0.8888
2385.000000 0.8882 0.8875 0.8870 0.8864 0.8858
2390.000000 0.8852 0.8847 0.8842 0.8839 0.8836
2395.000000 0.8833 0.8831 0.8828 0.8825 0.8821
2400.000000 0.8820 0.8818 0.8817 0.8815 0.8814
2405.000000 0.8812 0.8811 0.8809 0.8808 0.8806
2410.000000 0.8804 0.8802 0.8801 0.8799 0.8797
2415.000000 0.8796 0.8795 0.8793 0.8792 0.8791
2420.000000 0.8790 0.8790 0.8790 0.8790 0.8790
2425.000000 0.8790 0.8790 0.8790 0.8790 0.8790
2430.000000 0.8791 0.8792 0.8794 0.8795 0.8796
2435.000000 0.8797 0.8799 0.8800 0.8802 0.8803
2440.000000 0.8804 0.8806 0.8808 0.8811 0.8814
2445.000000 0.8817 0.8820 0.8823 0.8825 0.8830
2450.000000 0.8835 0.8840 0.8845 0.8850 0.8855
2455.000000 0.8860 0.8866 0.8871 0.8875 0.8881
2460.000000 0.8887 0.8888 0.8889 0.8889 0.8889
2465.000000 0.8889 0.8889 0.8889 0.8889 0.8889
2470.000000 0.8889 0.8889 0.8889 0.8888 0.8888
2475.000000 0.8888 0.8888 0.8888 0.8888 0.8888
2480.000000 0.8888 0.8888 0.8888 0.8888 0.8888
2485.000000 0.8888 0.8888 0.8888 0.8888 0.8888
2490.000000 0.8888 0.8888 0.8888 0.8888 0.8888
2495.000000 0.8888 0.8888 0.8888 0.8888 0.8888
2500.000000 0.8888 0.8888 0.8888 0.8888 0.8888
2505.000000 0.8887 0.8887 0.8887 0.8887 0.8887
2510.000000 0.8887 0.8887 0.8887 0.8887 0.8887
2515.000000 0.8887 0.8887 0.8886 0.8885 0.8883
2520.000000 0.8882 0.8880 0.8878 0.8875 0.8871
2525.000000 0.8868 0.8866 0.8862 0.8858 0.8853
2530.000000 0.8848 0.8843 0.8839 0.8833 0.8828
2535.000000 0.8821 0.8815 0.8808 0.8801 0.8790
2540.000000 0.8780 0.8768 0.8757 0.8746 0.8735
2545.000000 0.8723 0.8712 0.8701 0.8690 0.8682
2550.000000 0.8674 0.8668 0.8665 0.8661 0.8657
2555.000000 0.8653 0.8649 0.8647 0.8645 0.8644
2560.000000 0.8643 0.8642 0.8641 0.8640 0.8639
2565.000000 0.8638 0.8637 0.8637 0.8638 0.8640
2570.000000 0.8628 0.8644 0.8646 0.8648 0.8650
2575.000000 0.8654 0.8658 0.8664 0.8670 0.8678
2580.000000 0.8688 0.8697 0.8706 0.8715 0.8725
2585.000000 0.8735 0.8746 0.8756 0.8767 0.8777
2590.000000 0.8788 0.8798 0.8809 0.8828 0.8847
2595.000000 0.8866 0.8886 0.8897 0.8908 0.8910
2600.000000 0.8912 0.8912 0.8913 0.8913 0.8913
2605.000000 0.8913 0.8912 0.8911 0.8910 0.8909
2610.000000 0.8909 0.8908 0.8907 0.8906 0.8906
2615.000000 0.8906 0.8906 0.8905 0.8905 0.8905
2620.000000 0.8905 0.8904 0.8904 0.8904 0.8904
2625.000000 0.8902 0.8901 0.8900 0.8899 0.8898
2630.000000 0.8897 0.8895 0.8894 0.8893 0.8892
2635.000000 0.8891 0.8890 0.8888 0.8887 0.8886
2640.000000 0.8885 0.8884 0.8883 0.8881 0.8880
2645.000000 0.8878 0.8878 0.8877 0.8875 0.8875
2650.000000 0.8874 0.8871 0.8871 0.8870 0.8868
2655.000000 0.8868 0.8867 0.8865 0.8864 0.8863
2660.000000 0.8862 0.8861 0.8860 0.8859 0.8858
2665.000000 0.8856 0.8855 0.8854 0.8853 0.8851
2670.000000 0.8850 0.8849 0.8848 0.8846 0.8845
2675.000000 0.8844 0.8843 0.8841 0.8840 0.8838
2680.000000 0.8837 0.8836 0.8835 0.8833 0.8832
2685.000000 0.8831 0.8830 0.8828 0.8827 0.8825
2690.000000 0.8825 0.8824 0.8823 0.8821 0.8821
2695.000000 0.8820 0.8818 0.8818 0.8817 0.8816
2700.000000 0.8815 0.8814 0.8813 0.8812 0.8811
2705.000000 0.8810 0.8809 0.8808 0.8808 0.8807
2710.000000 0.8807 0.8806 0.8805 0.8804 0.8804
2715.000000 0.8803 0.8803 0.8803 0.8803 0.8804
2720.000000 0.8806 0.8807 0.8809 0.8810 0.8812
2725.000000 0.8814 0.8816 0.8818 0.8821 0.8824
2730.000000 0.8827 0.8828 0.8828 0.8828 0.8828
2735.000000 0.8825 0.8825 0.8821 0.8817 0.8813
2740.000000 0.8810 0.8806 0.8802 0.8796 0.8791
2745.000000 0.8784 0.8778 0.8771 0.8764 0.8757
2750.000000 0.8750 0.8743 0.8736 0.8728 0.8721
2755.000000 0.8716 0.8711 0.8706 0.8701 0.8695
2760.000000 0.8690 0.8685 0.8680 0.8675 0.8670
2765.000000 0.8664 0.8659 0.8654 0.8649 0.8644
2770.000000 0.8639 0.8634 0.8630 0.8625 0.8620
2775.000000 0.8615 0.8610 0.8605 0.8601 0.8596
2780.000000 0.8591 0.8586 0.8581 0.8575 0.8571
2785.000000 0.8565 0.8560 0.8554 0.8549 0.8543
2790.000000 0.8537 0.8531 0.8525 0.8520 0.8515
2795.000000 0.8509 0.8504 0.8498 0.8492 0.8488
2800.000000 0.8484 0.8480 0.8475 0.8471 0.8468
2805.000000 0.8464 0.8460 0.8456 0.8452 0.8448
2810.000000 0.8444 0.8440 0.8436 0.8432 0.8428
2815.000000 0.8418 0.8408 0.8396 0.8384 0.8363
2820.000000 0.8342 0.8318 0.8297 0.8274 0.8251
2825.000000 0.8228 0.8206 0.8180 0.8155 0.8128
2830.000000 0.8101 0.8072 0.8046 0.8025 0.8007
2835.000000 0.7987 0.7968 0.7948 0.7928 0.7911
2840.000000 0.7893 0.7878 0.7864 0.7849 0.7835
2845.000000 0.7819 0.7805 0.7790 0.7775 0.7771
2850.000000 0.7768 0.7764 0.7760 0.7756 0.7751
2855.000000 0.7748 0.7744 0.7742 0.7743 0.7743
2860.000000 0.7746 0.7749 0.7753 0.7756 0.7758
2865.000000 0.7765 0.7771 0.7780 0.7789 0.7797
2870.000000 0.7805 0.7812 0.7821 0.7830 0.7838
2875.000000 0.7840 0.7842 0.7843 0.7843 0.7842
2880.000000 0.7841 0.7837 0.7834 0.7817 0.7800
2885.000000 0.7776 0.7755 0.7731 0.7707 0.7680
2890.000000 0.7654 0.7626 0.7601 0.7525 0.7449
2895.000000 0.7382 0.7315 0.7265 0.7215 0.7133
2900.000000 0.7051 0.6890 0.6730 0.6618 0.6508
2905.000000 0.6418 0.6329 0.6269 0.6209 0.6149
2910.000000 0.6089 0.6005 0.5921 0.5791 0.5662
2915.000000 0.5545 0.5429 0.5375 0.5321 0.5272
2920.000000 0.5224 0.5198 0.5173 0.5148 0.5123
2925.000000 0.5102 0.5081 0.5068 0.5055 0.5042
2930.000000 0.5029 0.4958 0.4887 0.4672 0.4457
2935.000000 0.4423 0.4389 0.4378 0.4368 0.4362
2940.000000 0.4358 0.4357 0.4347 0.4365 0.4374
2945.000000 0.4401 0.4429 0.4475 0.4521 0.4599
2950.000000 0.4678 0.4739 0.4800 0.4860 0.4923
2955.000000 0.4944 0.4969 0.4965 0.4965 0.4508
2960.000000 0.4050 0.3422 0.2794 0.2341 0.1887
2965.000000 0.1887 0.1857 0.2096 0.2304 0.2968
2970.000000 0.3632 0.4295 0.4958 0.4958 0.4958
2975.000000 0.4958 0.4958 0.4919 0.4986 0.4830
2980.000000 0.4779 0.4728 0.4678 0.4627 0.4576
2985.000000 0.4525 0.4475 0.4424 0.4373 0.4326
2990.000000 0.4279 0.4234 0.4189 0.4143 0.4098
2995.000000 0.3976 0.3855 0.3825 0.3796 0.3780
3000.000000 0.3766 0.3760 0.3757 0.3756 0.3755
3005.000000 0.3754 0.3753 0.3741 0.3730 0.3702
3010.000000 0.3674 0.3645 0.3616 0.3595 0.3573
3015.000000 0.3573 0.3600 0.3614 0.3655 0.3729
3020.000000 0.3804 0.3812 0.3821 0.3822 0.3824
3025.000000 0.3825 0.3826 0.3894 0.3962 0.4162
3030.000000 0.4360 0.4559 0.4758 0.4959 0.5160
3035.000000 0.5246 0.5331 0.5441 0.5551 0.5656
3040.000000 0.5762 0.5880 0.5999 0.6170 0.6341
3045.000000 0.6358 0.6375 0.6385 0.6396 0.6406
3050.000000 0.6417 0.6425 0.6435 0.6442 0.6449
3055.000000 0.6456 0.6464 0.6471 0.6478 0.6486
3060.000000 0.6494 0.6503 0.6512 0.6524 0.6536
3065.000000 0.6547 0.6558 0.6569 0.6582 0.6595
3070.000000 0.6608 0.6621 0.6634 0.6647 0.6661
3075.000000 0.6674 0.6687 0.6700 0.6712 0.6726
3080.000000 0.6741 0.6758 0.6778 0.6796 0.6815
3085.000000 0.6834 0.6853 0.6871 0.6892 0.6912
3090.000000 0.6934 0.6961 0.6991 0.7019 0.7050
3095.000000 0.7082 0.7115 0.7156 0.7198 0.7244
3100.000000 0.7291 0.7381 0.7471 0.7561 0.7650
3105.000000 0.7719 0.7790 0.7848 0.7906 0.7941
3110.000000 0.7976 0.8011 0.8048 0.8083 0.8118
3115.000000 0.8154 0.8190 0.8218 0.8246 0.8274
3120.000000 0.8302 0.8325 0.8349 0.8361 0.8374
3125.000000 0.8386 0.8399 0.8411 0.8424 0.8432
3130.000000 0.8441 0.8447 0.8453 0.8458 0.8464
3135.000000 0.8470 0.8475 0.8482 0.8488 0.8493
3140.000000 0.8499 0.8503 0.8507 0.8511 0.8516
3145.000000 0.8520 0.8524 0.8528 0.8533 0.8537
3150.000000 0.8541 0.8545 0.8550 0.8553 0.8557
3155.000000 0.8559 0.8561 0.8563 0.8565 0.8567
3160.000000 0.8570 0.8571 0.8574 0.8575 0.8578
3165.000000 0.8581 0.8583 0.8585 0.8587 0.8589
3170.000000 0.8592 0.8594 0.8596 0.8598 0.8601
3175.000000 0.8602 0.8604 0.8606 0.8608 0.8609
3180.000000 0.8611 0.8613 0.8615 0.8616 0.8618
3185.000000 0.8620 0.8621 0.8623 0.8625 0.8627
3190.000000 0.8628 0.8630 0.8632 0.8634 0.8636
3195.000000 0.8637 0.8639 0.8641 0.8643 0.8644
3200.000000 0.8645 0.8646 0.8648 0.8649 0.8650
3205.000000 0.8651 0.8663 0.8654 0.8655 0.8656
3210.000000 0.8658 0.8659 0.8660 0.8661 0.8662
3215.000000 0.8663 0.8665 0.8666 0.8667 0.8668
3220.000000 0.8670 0.8671 0.8671 0.8673 0.8675
3225.000000 0.8675 0.8677 0.8678 0.8680 0.8681
3230.000000 0.8682 0.8682 0.8683 0.8683 0.8683
3235.000000 0.8683 0.8683 0.8683 0.8684 0.8684
3240.000000 0.8684 0.8684 0.8684 0.8684 0.8684
3245.000000 0.8684 0.8684 0.8684 0.8684 0.8684
3250.000000 0.8684 0.8684 0.8684 0.8684 0.8684
3255.000000 0.8684 0.8684 0.8684 0.8684 0.8684
3260.000000 0.8684 0.8683 0.8683 0.8683 0.8683
3265.000000 0.8682 0.8682 0.8682 0.8682 0.8681
3270.000000 0.8681 0.8681 0.8681 0.8680 0.8680
3275.000000 0.8680 0.8680 0.8678 0.8678 0.8678
3280.000000 0.8678 0.8678 0.8678 0.8678 0.8678
3285.000000 0.8677 0.8677 0.8677 0.8677 0.8675
3290.000000 0.8675 0.8675 0.8675 0.8675 0.8675
3295.000000 0.8675 0.8675 0.8674 0.8674 0.8673
3300.000000 0.8671 0.8671 0.8670 0.8668 0.8668
3305.000000 0.8667 0.8666 0.8665 0.8664 0.8663
3310.000000 0.8662 0.8661 0.8660 0.8659 0.8658
3315.000000 0.8657 0.8656 0.8655 0.8654 0.8653
3320.000000 0.8652 0.8651 0.8650 0.8649 0.8648
3325.000000 0.8647 0.8646 0.8645 0.8644 0.8643
3330.000000 0.8642 0.8641 0.8640 0.8639 0.8638
3335.000000 0.8636 0.8635 0.8633 0.8631 0.8628
3340.000000 0.8628 0.8625 0.8625 0.8623 0.8621
3345.000000 0.8618 0.8618 0.8616 0.8615 0.8613
3350.000000 0.8611 0.8609 0.8608 0.8606 0.8605
3355.000000 0.8603 0.8601 0.8599 0.8598 0.8596
3360.000000 0.8595 0.8593 0.8591 0.8589 0.8588
3365.000000 0.8586 0.8585 0.8581 0.8578 0.8574
3370.000000 0.8570 0.8566 0.8562 0.8558 0.8554
3375.000000 0.8549 0.8545 0.8541 0.8537 0.8533
3380.000000 0.8528 0.8525 0.8521 0.8515 0.8509
3385.000000 0.8502 0.8496 0.8490 0.8484 0.8478
3390.000000 0.8471 0.8466 0.8460 0.8454 0.8448
3395.000000 0.8442 0.8436 0.8430 0.8424 0.8417
3400.000000 0.8411 0.8402 0.8393 0.8381 0.8368
3405.000000 0.8357 0.8345 0.8333 0.8321 0.8309
3410.000000 0.8297 0.8275 0.8253 0.8231 0.8209
3415.000000 0.8187 0.8165 0.8142 0.8119 0.8096
3420.000000 0.8072 0.8049 0.8025 0.8001 0.7976
3425.000000 0.7953 0.7928 0.7904 0.7878 0.7842
3430.000000 0.7805 0.7768 0.7732 0.7695 0.7658
3435.000000 0.7625 0.7592 0.7558 0.7526 0.7494
3440.000000 0.7461 0.7435 0.7408 0.7387 0.7367
3445.000000 0.7354 0.7341 0.7337 0.7333 0.7332
3450.000000 0.7332 0.7332 0.7314 0.7338 0.7343
3455.000000 0.7351 0.7361 0.7382 0.7403 0.7454
3460.000000 0.7506 0.7575 0.7647 0.7691 0.7736
3465.000000 0.7822 0.7911 0.7960 0.8010 0.8051
3470.000000 0.8092 0.8122 0.8154 0.8178 0.8202
3475.000000 0.8221 0.8240 0.8259 0.8278 0.8297
3480.000000 0.8316 0.8335 0.8354 0.8373 0.8392
3485.000000 0.8409 0.8425 0.8442 0.8458 0.8474
3490.000000 0.8490 0.8506 0.8521 0.8531 0.8541
3495.000000 0.8549 0.8558 0.8566 0.8575 0.8584
3500.000000 0.8593 0.8601 0.8610 0.8618 0.8627
3505.000000 0.8635 0.8643 0.8648 0.8654 0.8660
3510.000000 0.8666 0.8671 0.8678 0.8684 0.8690
3515.000000 0.8695 0.8701 0.8707 0.8713 0.8717
3520.000000 0.8721 0.8725 0.8728 0.8731 0.8734
3525.000000 0.8737 0.8740 0.8743 0.8746 0.8748
3530.000000 0.8751 0.8754 0.8757 0.8760 0.8763
3535.000000 0.8766 0.8768 0.8771 0.8775 0.8777
3540.000000 0.8780 0.8781 0.8783 0.8785 0.8787
3545.000000 0.8788 0.8790 0.8791 0.8793 0.8795
3550.000000 0.8797 0.8798 0.8800 0.8802 0.8804
3555.000000 0.8805 0.8807 0.8808 0.8810 0.8812
3560.000000 0.8814 0.8815 0.8817 0.8818 0.8821
3565.000000 0.8821 0.8824 0.8825 0.8827 0.8828
3570.000000 0.8831 0.8832 0.8834 0.8834 0.8835
3575.000000 0.8835 0.8836 0.8836 0.8837 0.8837
3580.000000 0.8837 0.8837 0.8838 0.8838 0.8839
3585.000000 0.8839 0.8840 0.8840 0.8840 0.8840
3590.000000 0.8841 0.8841 0.8842 0.8842 0.8843
3595.000000 0.8843 0.8843 0.8842 0.8842 0.8842
3600.000000 0.8842 0.8841 0.8841 0.8840 0.8840
3605.000000 0.8840 0.8840 0.8839 0.8839 0.8838
3610.000000 0.8838 0.8838 0.8838 0.8837 0.8837
3615.000000 0.8836 0.8836 0.8838 0.8840 0.8842
3620.000000 0.8844 0.8846 0.8848 0.8850 0.8852
3625.000000 0.8854 0.8856 0.8858 0.8858 0.8859
3630.000000 0.8858 0.8858 0.8858 0.8857 0.8857
3635.000000 0.8854 0.8852 0.8844 0.8836 0.8831
3640.000000 0.8827 0.8828 0.8830 0.8832 0.8834
3645.000000 0.8835 0.8835 0.8835 0.8834 0.8832
3650.000000 0.8830 0.8828 0.8825 0.8824 0.8821
3655.000000 0.8818 0.8815 0.8811 0.8808 0.8804
3660.000000 0.8801 0.8797 0.8794 0.8791 0.8788
3665.000000 0.8786 0.8784 0.8782 0.8781 0.8778
3670.000000 0.8778 0.8775 0.8775 0.8773 0.8771
3675.000000 0.8770 0.8768 0.8773 0.8778 0.8782
3680.000000 0.8787 0.8791 0.8796 0.8800 0.8805
3685.000000 0.8810 0.8816 0.8821 0.8828 0.8836
3690.000000 0.8843 0.8849 0.8856 0.8861 0.8867
3695.000000 0.8868 0.8871 0.8873 0.8875 0.8877
3700.000000 0.8878 0.8881 0.8881 0.8881 0.8880
3705.000000 0.8878 0.8877 0.8875 0.8874 0.8873
3710.000000 0.8871 0.8870 0.8868 0.8867 0.8866
3715.000000 0.8864 0.8863 0.8862 0.8861 0.8859
3720.000000 0.8857 0.8855 0.8853 0.8851 0.8849
3725.000000 0.8846 0.8844 0.8842 0.8840 0.8838
3730.000000 0.8836 0.8834 0.8832 0.8830 0.8828
3735.000000 0.8825 0.8824 0.8821 0.8820 0.8818
3740.000000 0.8816 0.8813 0.8811 0.8808 0.8806
3745.000000 0.8803 0.8801 0.8798 0.8796 0.8793
3750.000000 0.8791 0.8788 0.8786 0.8783 0.8781
3755.000000 0.8778 0.8775 0.8774 0.8771 0.8768
3760.000000 0.8767 0.8765 0.8763 0.8761 0.8759
3765.000000 0.8757 0.8755 0.8753 0.8751 0.8749
3770.000000 0.8747 0.8745 0.8743 0.8741 0.8740
3775.000000 0.8738 0.8737 0.8735 0.8734 0.8732
3780.000000 0.8731 0.8730 0.8728 0.8727 0.8725
3785.000000 0.8724 0.8721 0.8720 0.8718 0.8716
3790.000000 0.8714 0.8711 0.8709 0.8707 0.8705
3795.000000 0.8703 0.8701 0.8700 0.8699
##END=
