##TITLE=Benzene
##JCAMP-DX=4.24
##DATA TYPE=INFRARED SPECTRUM
##CLASS=COBLENTZ
##ORIGIN=DOW CHEMICAL COMPANY
##OWNER=Copyright (C) 1987 by the Coblentz Society
Collection (C) 2018 copyright by the U.S. Secretary of Commerce
on behalf of the United States of America. All rights reserved.
##DATE=1964
##CAS REGISTRY NO=71-43-2
##MOLFORM=C6 H6
##SOURCE REFERENCE=COBLENTZ NO. 8861
##$NIST SOURCE=COBLENTZ
##$NIST IMAGE=cob8861
##SPECTROMETER/DATA SYSTEM=DOW KBr FOREPRISM-GRATING
##INSTRUMENT PARAMETERS=GRATING CHANGED AT 5.0, 7.5, 15.0 MICRON
##STATE=GAS (70 mmHg, N2 ADDED, TOTAL PRESSURE 600 mmHg)
##PATH LENGTH=5 CM
##SAMPLING PROCEDURE=TRANSMISSION
##RESOLUTION=2
##DATA PROCESSING=DIGITIZED BY COBLENTZ SOCIETY (BATCH II) FROM HARD COPY
##XUNITS=1/CM
##YUNITS=TRANSMITTANCE
##XFACTOR=1.0
##YFACTOR=1
##FIRSTX=452
##LASTX=3794
##FIRSTY=0.8787
##MAXX=3794
##MINX=452
##MAXY=0.8868
##MINY=0
##NPOINTS=3343
##XYDATA=(X++(Y..Y))
452.000000 0.8787 0.8787 0.8787 0.8787 0.8788
457.000000 0.8791 0.8794 0.8798 0.8801 0.8803
462.000000 0.8803 0.8803 0.8803 0.8804 0.8804
467.000000 0.8804 0.8804 0.8802 0.8800 0.8798
472.000000 0.8795 0.8793 0.8791 0.8789 0.8787
477.000000 0.8785 0.8782 0.8779 0.8776 0.8773
482.000000 0.8770 0.8766 0.8763 0.8760 0.8757
487.000000 0.8754 0.8751 0.8748 0.8745 0.8742
492.000000 0.8738 0.8736 0.8733 0.8731 0.8728
497.000000 0.8726 0.8723 0.8721 0.8718 0.8715
502.000000 0.8713 0.8710 0.8708 0.8705 0.8703
507.000000 0.8700 0.8699 0.8698 0.8697 0.8695
512.000000 0.8694 0.8693 0.8691 0.8690 0.8690
517.000000 0.8678 0.8690 0.8690 0.8690 0.8691
522.000000 0.8691 0.8692 0.8694 0.8696 0.8698
527.000000 0.8700 0.8702 0.8703 0.8705 0.8707
532.000000 0.8709 0.8711 0.8713 0.8715 0.8717
537.000000 0.8719 0.8721 0.8723 0.8725 0.8727
542.000000 0.8729 0.8731 0.8734 0.8738 0.8741
547.000000 0.8745 0.8749 0.8753 0.8756 0.8760
552.000000 0.8764 0.8767 0.8771 0.8775 0.8779
557.000000 0.8783 0.8787 0.8791 0.8795 0.8799
562.000000 0.8803 0.8805 0.8807 0.8809 0.8811
567.000000 0.8814 0.8816 0.8818 0.8819 0.8818
572.000000 0.8817 0.8817 0.8816 0.8815 0.8814
577.000000 0.8813 0.8812 0.8810 0.8809 0.8808
582.000000 0.8806 0.8806 0.8806 0.8807 0.8808
587.000000 0.8808 0.8809 0.8809 0.8810 0.8812
592.000000 0.8815 0.8818 0.8821 0.8824 0.8827
597.000000 0.8830 0.8833 0.8837 0.8840 0.8843
602.000000 0.8847 0.8850 0.8845 0.8839 0.8833
607.000000 0.8824 0.8814 0.8805 0.8811 0.8820
612.000000 0.8829 0.8838 0.8846 0.8854 0.8859
617.000000 0.8864 0.8867 0.8868 0.8868 0.8868
622.000000 0.8868 0.8868 0.8868 0.8868 0.8862
627.000000 0.8854 0.8846 0.8836 0.8812 0.8783
632.000000 0.8751 0.8718 0.8667 0.8610 0.8548
637.000000 0.8484 0.8395 0.8117 0.7839 0.7561
642.000000 0.7283 0.7005 0.6727 0.6481 0.5862
647.000000 0.5089 0.4316 0.3543 0.2770 0.2569
652.000000 0.2408 0.1781 0.0926 0.0759 0.0727
657.000000 0.0695 0.0669 0.0644 0.0628 0.0627
662.000000 0.0654 0.0644 0.0662 0.0813 0.1029
667.000000 0.1155 0.1816 0.2505 0.3067 0.3009
672.000000 0.0000 0.0000 0.0301 0.1161 0.2021
677.000000 0.2881 0.3741 0.3785 0.3138 0.2350
682.000000 0.1563 0.0775 0.0583 0.0466 0.0403
687.000000 0.0380 0.0387 0.0395 0.0467 0.0573
692.000000 0.0668 0.0846 0.1015 0.1119 0.1225
697.000000 0.1839 0.2454 0.3068 0.3682 0.4101
702.000000 0.4580 0.5060 0.5540 0.6020 0.6499
707.000000 0.6979 0.7459 0.7939 0.8188 0.8254
712.000000 0.8295 0.8326 0.8352 0.8379 0.8396
717.000000 0.8412 0.8423 0.8434 0.8445 0.8452
722.000000 0.8459 0.8465 0.8467 0.8470 0.8472
727.000000 0.8474 0.8476 0.8478 0.8479 0.8483
732.000000 0.8488 0.8492 0.8498 0.8516 0.8534
737.000000 0.8549 0.8565 0.8577 0.8578 0.8579
742.000000 0.8580 0.8581 0.8579 0.8577 0.8576
747.000000 0.8574 0.8572 0.8570 0.8568 0.8566
752.000000 0.8564 0.8562 0.8559 0.8556 0.8553
757.000000 0.8550 0.8547 0.8544 0.8540 0.8535
762.000000 0.8531 0.8527 0.8524 0.8520 0.8517
767.000000 0.8517 0.8522 0.8528 0.8536 0.8547
772.000000 0.8554 0.8556 0.8558 0.8555 0.8543
777.000000 0.8531 0.8411 0.8246 0.8081 0.8012
782.000000 0.8131 0.8251 0.8371 0.8491 0.8544
787.000000 0.8544 0.8544 0.8544 0.8543 0.8541
792.000000 0.8542 0.8544 0.8545 0.8547 0.8548
797.000000 0.8549 0.8553 0.8557 0.8561 0.8567
802.000000 0.8574 0.8580 0.8587 0.8595 0.8603
807.000000 0.8611 0.8618 0.8622 0.8626 0.8628
812.000000 0.8629 0.8630 0.8631 0.8632 0.8632
817.000000 0.8631 0.8629 0.8628 0.8627 0.8626
822.000000 0.8625 0.8624 0.8622 0.8621 0.8621
827.000000 0.8620 0.8619 0.8619 0.8618 0.8617
832.000000 0.8617 0.8616 0.8615 0.8615 0.8615
837.000000 0.8615 0.8615 0.8616 0.8616 0.8616
842.000000 0.8616 0.8616 0.8616 0.8616 0.8616
847.000000 0.8617 0.8617 0.8617 0.8617 0.8617
852.000000 0.8617 0.8617 0.8617 0.8617 0.8618
857.000000 0.8618 0.8618 0.8619 0.8619 0.8620
862.000000 0.8620 0.8620 0.8621 0.8621 0.8621
867.000000 0.8622 0.8622 0.8623 0.8623 0.8624
872.000000 0.8625 0.8626 0.8627 0.8629 0.8630
877.000000 0.8631 0.8633 0.8634 0.8635 0.8636
882.000000 0.8638 0.8639 0.8640 0.8642 0.8643
887.000000 0.8644 0.8646 0.8648 0.8649 0.8651
892.000000 0.8653 0.8654 0.8656 0.8658 0.8660
897.000000 0.8661 0.8663 0.8665 0.8666 0.8668
902.000000 0.8670 0.8671 0.8673 0.8674 0.8675
907.000000 0.8676 0.8677 0.8678 0.8679 0.8680
912.000000 0.8681 0.8682 0.8683 0.8684 0.8685
917.000000 0.8686 0.8687 0.8688 0.8689 0.8690
922.000000 0.8691 0.8692 0.8693 0.8694 0.8695
927.000000 0.8696 0.8697 0.8698 0.8699 0.8700
932.000000 0.8701 0.8702 0.8703 0.8704 0.8705
937.000000 0.8706 0.8707 0.8708 0.8709 0.8711
942.000000 0.8712 0.8713 0.8713 0.8714 0.8714
947.000000 0.8715 0.8715 0.8716 0.8717 0.8717
952.000000 0.8718 0.8718 0.8719 0.8719 0.8720
957.000000 0.8721 0.8721 0.8722 0.8722 0.8723
962.000000 0.8724 0.8725 0.8725 0.8726 0.8727
967.000000 0.8727 0.8728 0.8729 0.8729 0.8730
972.000000 0.8731 0.8731 0.8729 0.8728 0.8726
977.000000 0.8725 0.8723 0.8722 0.8720 0.8719
982.000000 0.8717 0.8714 0.8709 0.8703 0.8698
987.000000 0.8693 0.8688 0.8682 0.8676 0.8669
992.000000 0.8663 0.8656 0.8650 0.8642 0.8632
997.000000 0.8622 0.8612 0.8602 0.8588 0.8573
1002.000000 0.8558 0.8543 0.8528 0.8506 0.8482
1007.000000 0.8459 0.8420 0.8376 0.8332 0.8202
1012.000000 0.8062 0.7922 0.7782 0.7642 0.7502
1017.000000 0.7362 0.7222 0.7082 0.6942 0.6802
1022.000000 0.6662 0.6521 0.6483 0.6452 0.6469
1027.000000 0.6543 0.6624 0.6705 0.6786 0.6867
1032.000000 0.6881 0.6885 0.6422 0.6011 0.5599
1037.000000 0.5188 0.4776 0.4365 0.3973 0.3963
1042.000000 0.5003 0.6703 0.7476 0.7499 0.7385
1047.000000 0.7245 0.7104 0.6964 0.6824 0.6684
1052.000000 0.6610 0.6617 0.6602 0.6848 0.7026
1057.000000 0.7205 0.7384 0.7562 0.7741 0.7920
1062.000000 0.8098 0.8277 0.8377 0.8420 0.8463
1067.000000 0.8499 0.8530 0.8561 0.8592 0.8622
1072.000000 0.8651 0.8680 0.8691 0.8702 0.8712
1077.000000 0.8719 0.8723 0.8727 0.8732 0.8736
1082.000000 0.8740 0.8741 0.8743 0.8744 0.8745
1087.000000 0.8747 0.8748 0.8750 0.8753 0.8757
1092.000000 0.8760 0.8763 0.8766 0.8769 0.8772
1097.000000 0.8775 0.8777 0.8780 0.8783 0.8786
1102.000000 0.8789 0.8792 0.8795 0.8798 0.8803
1107.000000 0.8808 0.8812 0.8817 0.8822 0.8826
1112.000000 0.8830 0.8834 0.8838 0.8841 0.8842
1117.000000 0.8844 0.8845 0.8846 0.8848 0.8848
1122.000000 0.8846 0.8844 0.8842 0.8840 0.8837
1127.000000 0.8833 0.8829 0.8825 0.8821 0.8817
1132.000000 0.8813 0.8807 0.8800 0.8793 0.8786
1137.000000 0.8776 0.8763 0.8750 0.8736 0.8735
1142.000000 0.8737 0.8741 0.8743 0.8750 0.8756
1147.000000 0.8763 0.8769 0.8776 0.8782 0.8789
1152.000000 0.8791 0.8792 0.8793 0.8794 0.8795
1157.000000 0.8795 0.8796 0.8797 0.8798 0.8799
1162.000000 0.8799 0.8798 0.8797 0.8797 0.8796
1167.000000 0.8794 0.8792 0.8790 0.8788 0.8784
1172.000000 0.8780 0.8777 0.8772 0.8764 0.8755
1177.000000 0.8745 0.8731 0.8718 0.8707 0.8701
1182.000000 0.8699 0.8732 0.8725 0.8744 0.8764
1187.000000 0.8783 0.8787 0.8791 0.8791 0.8792
1192.000000 0.8793 0.8794 0.8794 0.8792 0.8790
1197.000000 0.8788 0.8787 0.8786 0.8785 0.8784
1202.000000 0.8783 0.8781 0.8780 0.8778 0.8775
1207.000000 0.8772 0.8768 0.8764 0.8761 0.8758
1212.000000 0.8757 0.8756 0.8754 0.8753 0.8752
1217.000000 0.8755 0.8758 0.8764 0.8770 0.8777
1222.000000 0.8777 0.8774 0.8770 0.8766 0.8760
1227.000000 0.8753 0.8746 0.8739 0.8732 0.8724
1232.000000 0.8714 0.8703 0.8693 0.8683 0.8671
1237.000000 0.8659 0.8646 0.8633 0.8624 0.8617
1242.000000 0.8610 0.8604 0.8597 0.8590 0.8583
1247.000000 0.8577 0.8570 0.8563 0.8557 0.8555
1252.000000 0.8554 0.8554 0.8553 0.8553 0.8552
1257.000000 0.8555 0.8558 0.8563 0.8570 0.8577
1262.000000 0.8584 0.8591 0.8599 0.8607 0.8616
1267.000000 0.8626 0.8635 0.8640 0.8642 0.8641
1272.000000 0.8640 0.8639 0.8636 0.8634 0.8632
1277.000000 0.8630 0.8628 0.8625 0.8623 0.8620
1282.000000 0.8616 0.8613 0.8610 0.8606 0.8605
1287.000000 0.8603 0.8602 0.8601 0.8599 0.8598
1292.000000 0.8597 0.8595 0.8595 0.8594 0.8594
1297.000000 0.8594 0.8593 0.8593 0.8593 0.8592
1302.000000 0.8592 0.8593 0.8594 0.8595 0.8596
1307.000000 0.8597 0.8598 0.8599 0.8600 0.8602
1312.000000 0.8603 0.8604 0.8605 0.8606 0.8607
1317.000000 0.8608 0.8609 0.8609 0.8610 0.8610
1322.000000 0.8610 0.8610 0.8610 0.8610 0.8608
1327.000000 0.8606 0.8604 0.8601 0.8599 0.8597
1332.000000 0.8595 0.8592 0.8588 0.8584 0.8579
1337.000000 0.8575 0.8570 0.8565 0.8561 0.8556
1342.000000 0.8554 0.8553 0.8553 0.8552 0.8551
1347.000000 0.8553 0.8558 0.8564 0.8570 0.8576
1352.000000 0.8584 0.8594 0.8605 0.8616 0.8632
1357.000000 0.8647 0.8657 0.8664 0.8661 0.8658
1362.000000 0.8649 0.8638 0.8627 0.8607 0.8586
1367.000000 0.8563 0.8534 0.8501 0.8462 0.8423
1372.000000 0.8384 0.8345 0.8306 0.8267 0.8228
1377.000000 0.8196 0.8169 0.8142 0.8115 0.8095
1382.000000 0.8079 0.8069 0.8062 0.8062 0.8063
1387.000000 0.8062 0.8069 0.8072 0.8075 0.8083
1392.000000 0.8091 0.8099 0.8111 0.8125 0.8139
1397.000000 0.8153 0.8167 0.8187 0.8215 0.8242
1402.000000 0.8271 0.8299 0.8327 0.8353 0.8377
1407.000000 0.8402 0.8424 0.8442 0.8459 0.8476
1412.000000 0.8494 0.8504 0.8513 0.8522 0.8532
1417.000000 0.8536 0.8541 0.8544 0.8544 0.8544
1422.000000 0.8544 0.8542 0.8539 0.8536 0.8533
1427.000000 0.8530 0.8527 0.8524 0.8521 0.8517
1432.000000 0.8514 0.8538 0.8507 0.8502 0.8497
1437.000000 0.8491 0.8486 0.8480 0.8475 0.8465
1442.000000 0.8455 0.8444 0.8433 0.8423 0.8410
1447.000000 0.8395 0.8380 0.8365 0.8350 0.8326
1452.000000 0.8296 0.8266 0.8236 0.8189 0.8140
1457.000000 0.8091 0.8022 0.7941 0.7861 0.7764
1462.000000 0.7667 0.7519 0.7369 0.7227 0.6644
1467.000000 0.6343 0.6041 0.5740 0.5439 0.5137
1472.000000 0.4836 0.4580 0.4503 0.4497 0.4512
1477.000000 0.4552 0.4598 0.4645 0.4692 0.4723
1482.000000 0.4725 0.4595 0.4235 0.3875 0.3515
1487.000000 0.3273 0.3231 0.3811 0.4248 0.4684
1492.000000 0.5121 0.5207 0.5200 0.5086 0.4945
1497.000000 0.4803 0.4662 0.4596 0.4596 0.4592
1502.000000 0.5077 0.5336 0.5596 0.5855 0.6029
1507.000000 0.6350 0.6744 0.6878 0.6969 0.7053
1512.000000 0.7134 0.7193 0.7250 0.7289 0.7328
1517.000000 0.7370 0.7415 0.7443 0.7469 0.7481
1522.000000 0.7510 0.7604 0.7615 0.7609 0.7603
1527.000000 0.7596 0.7585 0.7560 0.7544 0.7536
1532.000000 0.7565 0.7677 0.7789 0.7901 0.8014
1537.000000 0.8147 0.8255 0.8334 0.8400 0.8465
1542.000000 0.8514 0.8526 0.8535 0.8534 0.8532
1547.000000 0.8532 0.8534 0.8535 0.8536 0.8539
1552.000000 0.8542 0.8545 0.8550 0.8566 0.8586
1557.000000 0.8609 0.8629 0.8643 0.8646 0.8642
1562.000000 0.8628 0.8612 0.8579 0.8569 0.8569
1567.000000 0.8569 0.8569 0.8569 0.8569 0.8569
1572.000000 0.8569 0.8570 0.8571 0.8572 0.8573
1577.000000 0.8573 0.8573 0.8573 0.8572 0.8572
1582.000000 0.8571 0.8571 0.8570 0.8568 0.8567
1587.000000 0.8565 0.8563 0.8562 0.8560 0.8559
1592.000000 0.8557 0.8555 0.8554 0.8552 0.8551
1597.000000 0.8549 0.8548 0.8546 0.8545 0.8543
1602.000000 0.8542 0.8541 0.8539 0.8538 0.8537
1607.000000 0.8536 0.8534 0.8532 0.8530 0.8528
1612.000000 0.8525 0.8524 0.8524 0.8524 0.8524
1617.000000 0.8524 0.8525 0.8525 0.8522 0.8515
1622.000000 0.8497 0.8470 0.8445 0.8454 0.8471
1627.000000 0.8483 0.8494 0.8506 0.8509 0.8506
1632.000000 0.8504 0.8501 0.8496 0.8491 0.8488
1637.000000 0.8488 0.8492 0.8500 0.8509 0.8520
1642.000000 0.8531 0.8543 0.8548 0.8535 0.8549
1647.000000 0.8547 0.8546 0.8544 0.8544 0.8544
1652.000000 0.8544 0.8542 0.8538 0.8534 0.8530
1657.000000 0.8525 0.8520 0.8515 0.8510 0.8505
1662.000000 0.8500 0.8495 0.8490 0.8485 0.8483
1667.000000 0.8482 0.8482 0.8481 0.8483 0.8485
1672.000000 0.8488 0.8489 0.8489 0.8489 0.8489
1677.000000 0.8489 0.8492 0.8496 0.8502 0.8510
1682.000000 0.8517 0.8527 0.8538 0.8548 0.8557
1687.000000 0.8565 0.8573 0.8577 0.8582 0.8587
1692.000000 0.8591 0.8597 0.8603 0.8608 0.8614
1697.000000 0.8618 0.8623 0.8627 0.8630 0.8631
1702.000000 0.8631 0.8631 0.8631 0.8625 0.8619
1707.000000 0.8613 0.8607 0.8601 0.8595 0.8590
1712.000000 0.8584 0.8582 0.8582 0.8584 0.8612
1717.000000 0.8647 0.8667 0.8663 0.8659 0.8649
1722.000000 0.8639 0.8629 0.8620 0.8613 0.8606
1727.000000 0.8603 0.8601 0.8598 0.8596 0.8597
1732.000000 0.8599 0.8601 0.8604 0.8607 0.8593
1737.000000 0.8576 0.8563 0.8554 0.8546 0.8539
1742.000000 0.8535 0.8530 0.8526 0.8522 0.8520
1747.000000 0.8517 0.8514 0.8512 0.8510 0.8483
1752.000000 0.8439 0.8350 0.8330 0.8331 0.8336
1757.000000 0.8352 0.8387 0.8429 0.8461 0.8462
1762.000000 0.8460 0.8458 0.8455 0.8451 0.8447
1767.000000 0.8443 0.8438 0.8434 0.8429 0.8424
1772.000000 0.8417 0.8411 0.8404 0.8397 0.8387
1777.000000 0.8376 0.8365 0.8350 0.8336 0.8322
1782.000000 0.8306 0.8277 0.8249 0.8204 0.8145
1787.000000 0.8095 0.8046 0.7998 0.7920 0.7839
1792.000000 0.7765 0.7688 0.7536 0.7384 0.7232
1797.000000 0.7080 0.6928 0.6776 0.6624 0.6456
1802.000000 0.6285 0.6254 0.6273 0.6290 0.6327
1807.000000 0.6345 0.6358 0.6355 0.6350 0.6359
1812.000000 0.6435 0.6477 0.6491 0.6496 0.6509
1817.000000 0.6430 0.6352 0.6276 0.6247 0.6244
1822.000000 0.6311 0.6453 0.6595 0.6736 0.6878
1827.000000 0.7020 0.7162 0.7304 0.7659 0.8056
1832.000000 0.8161 0.8233 0.8297 0.8348 0.8397
1837.000000 0.8429 0.8454 0.8479 0.8502 0.8518
1842.000000 0.8533 0.8544 0.8552 0.8560 0.8566
1847.000000 0.8565 0.8563 0.8561 0.8556 0.8551
1852.000000 0.8546 0.8540 0.8534 0.8528 0.8524
1857.000000 0.8521 0.8518 0.8515 0.8512 0.8509
1862.000000 0.8507 0.8504 0.8501 0.8499 0.8499
1867.000000 0.8499 0.8538 0.8498 0.8498 0.8497
1872.000000 0.8497 0.8497 0.8496 0.8497 0.8497
1877.000000 0.8497 0.8497 0.8497 0.8497 0.8497
1882.000000 0.8497 0.8497 0.8498 0.8499 0.8501
1887.000000 0.8503 0.8505 0.8507 0.8509 0.8512
1892.000000 0.8514 0.8518 0.8521 0.8525 0.8529
1897.000000 0.8533 0.8537 0.8539 0.8540 0.8542
1902.000000 0.8543 0.8545 0.8546 0.8546 0.8545
1907.000000 0.8545 0.8544 0.8543 0.8543 0.8537
1912.000000 0.8532 0.8527 0.8521 0.8516 0.8510
1917.000000 0.8502 0.8494 0.8485 0.8477 0.8468
1922.000000 0.8460 0.8451 0.8442 0.8426 0.8411
1927.000000 0.8396 0.8380 0.8347 0.8312 0.8277
1932.000000 0.8229 0.8153 0.8058 0.7964 0.7870
1937.000000 0.7776 0.7681 0.7587 0.7493 0.7399
1942.000000 0.7304 0.7223 0.7162 0.7091 0.7005
1947.000000 0.6945 0.6931 0.6921 0.6935 0.6947
1952.000000 0.6961 0.6978 0.6999 0.7031 0.7065
1957.000000 0.7097 0.7104 0.7107 0.7131 0.7043
1962.000000 0.6994 0.6959 0.6937 0.6923 0.6953
1967.000000 0.7001 0.7067 0.7192 0.7365 0.7538
1972.000000 0.7711 0.7885 0.8245 0.8322 0.8387
1977.000000 0.8415 0.8443 0.8471 0.8486 0.8494
1982.000000 0.8502 0.8503 0.8500 0.8498 0.8495
1987.000000 0.8492 0.8493 0.8500 0.8506 0.8515
1992.000000 0.8526 0.8538 0.8546 0.8548 0.8545
1997.000000 0.8540 0.8534 0.8528 0.8523 0.8517
2002.000000 0.8511 0.8508 0.8505 0.8504 0.8504
2007.000000 0.8504 0.8505 0.8505 0.8506 0.8506
2012.000000 0.8507 0.8507 0.8508 0.8509 0.8510
2017.000000 0.8511 0.8512 0.8512 0.8513 0.8514
2022.000000 0.8515 0.8515 0.8516 0.8518 0.8520
2027.000000 0.8521 0.8523 0.8525 0.8527 0.8529
2032.000000 0.8531 0.8533 0.8536 0.8539 0.8543
2037.000000 0.8547 0.8551 0.8554 0.8558 0.8562
2042.000000 0.8566 0.8569 0.8573 0.8577 0.8581
2047.000000 0.8584 0.8588 0.8591 0.8595 0.8597
2052.000000 0.8600 0.8602 0.8605 0.8607 0.8609
2057.000000 0.8611 0.8614 0.8616 0.8618 0.8618
2062.000000 0.8618 0.8618 0.8618 0.8617 0.8617
2067.000000 0.8617 0.8617 0.8617 0.8617 0.8616
2072.000000 0.8616 0.8616 0.8616 0.8616 0.8616
2077.000000 0.8616 0.8616 0.8616 0.8616 0.8616
2082.000000 0.8616 0.8616 0.8616 0.8616 0.8616
2087.000000 0.8616 0.8616 0.8616 0.8616 0.8616
2092.000000 0.8617 0.8617 0.8617 0.8617 0.8617
2097.000000 0.8617 0.8617 0.8617 0.8617 0.8616
2102.000000 0.8616 0.8615 0.8615 0.8615 0.8615
2107.000000 0.8614 0.8614 0.8614 0.8614 0.8613
2112.000000 0.8613 0.8613 0.8613 0.8612 0.8612
2117.000000 0.8612 0.8612 0.8611 0.8611 0.8610
2122.000000 0.8610 0.8610 0.8610 0.8609 0.8609
2127.000000 0.8609 0.8609 0.8608 0.8608 0.8608
2132.000000 0.8608 0.8607 0.8607 0.8606 0.8606
2137.000000 0.8605 0.8604 0.8603 0.8603 0.8602
2142.000000 0.8602 0.8601 0.8601 0.8600 0.8600
2147.000000 0.8599 0.8599 0.8598 0.8598 0.8597
2152.000000 0.8597 0.8596 0.8595 0.8594 0.8594
2157.000000 0.8593 0.8593 0.8592 0.8592 0.8591
2162.000000 0.8591 0.8590 0.8590 0.8589 0.8588
2167.000000 0.8587 0.8587 0.8586 0.8586 0.8585
2172.000000 0.8585 0.8584 0.8583 0.8582 0.8582
2177.000000 0.8581 0.8581 0.8580 0.8580 0.8579
2182.000000 0.8578 0.8577 0.8577 0.8576 0.8576
2187.000000 0.8575 0.8574 0.8572 0.8571 0.8570
2192.000000 0.8569 0.8568 0.8567 0.8565 0.8563
2197.000000 0.8556 0.8550 0.8540 0.8531 0.8521
2202.000000 0.8512 0.8502 0.8493 0.8482 0.8471
2207.000000 0.8457 0.8444 0.8438 0.8432 0.8426
2212.000000 0.8420 0.8417 0.8415 0.8413 0.8412
2217.000000 0.8413 0.8408 0.8417 0.8420 0.8425
2222.000000 0.8430 0.8438 0.8447 0.8455 0.8463
2227.000000 0.8473 0.8484 0.8498 0.8512 0.8535
2232.000000 0.8558 0.8578 0.8599 0.8605 0.8611
2237.000000 0.8613 0.8615 0.8616 0.8618 0.8619
2242.000000 0.8621 0.8622 0.8623 0.8624 0.8625
2247.000000 0.8624 0.8624 0.8623 0.8623 0.8622
2252.000000 0.8622 0.8621 0.8621 0.8620 0.8619
2257.000000 0.8618 0.8618 0.8617 0.8617 0.8616
2262.000000 0.8615 0.8614 0.8614 0.8613 0.8613
2267.000000 0.8612 0.8611 0.8610 0.8609 0.8608
2272.000000 0.8608 0.8607 0.8606 0.8605 0.8604
2277.000000 0.8603 0.8602 0.8601 0.8600 0.8599
2282.000000 0.8598 0.8597 0.8596 0.8595 0.8594
2287.000000 0.8593 0.8592 0.8591 0.8590 0.8589
2292.000000 0.8588 0.8586 0.8585 0.8584 0.8583
2297.000000 0.8582 0.8581 0.8580 0.8579 0.8578
2302.000000 0.8577 0.8576 0.8575 0.8572 0.8569
2307.000000 0.8566 0.8564 0.8548 0.8532 0.8518
2312.000000 0.8505 0.8494 0.8483 0.8473 0.8463
2317.000000 0.8455 0.8447 0.8447 0.8447 0.8448
2322.000000 0.8449 0.8449 0.8449 0.8449 0.8453
2327.000000 0.8453 0.8456 0.8458 0.8461 0.8463
2332.000000 0.8466 0.8469 0.8472 0.8474 0.8477
2337.000000 0.8482 0.8487 0.8497 0.8507 0.8520
2342.000000 0.8533 0.8546 0.8560 0.8576 0.8593
2347.000000 0.8620 0.8648 0.8675 0.8702 0.8721
2352.000000 0.8740 0.8753 0.8767 0.8772 0.8778
2357.000000 0.8778 0.8778 0.8778 0.8778 0.8776
2362.000000 0.8774 0.8771 0.8768 0.8764 0.8760
2367.000000 0.8751 0.8743 0.8735 0.8727 0.8717
2372.000000 0.8708 0.8698 0.8688 0.8677 0.8666
2377.000000 0.8654 0.8643 0.8631 0.8620 0.8606
2382.000000 0.8593 0.8574 0.8556 0.8553 0.8550
2387.000000 0.8551 0.8552 0.8552 0.8553 0.8554
2392.000000 0.8555 0.8556 0.8557 0.8560 0.8563
2397.000000 0.8566 0.8570 0.8573 0.8576 0.8579
2402.000000 0.8582 0.8584 0.8587 0.8588 0.8590
2407.000000 0.8592 0.8594 0.8596 0.8598 0.8600
2412.000000 0.8602 0.8603 0.8605 0.8606 0.8608
2417.000000 0.8609 0.8611 0.8613 0.8615 0.8616
2422.000000 0.8618 0.8620 0.8622 0.8624 0.8626
2427.000000 0.8627 0.8629 0.8631 0.8633 0.8634
2432.000000 0.8636 0.8638 0.8640 0.8641 0.8643
2437.000000 0.8644 0.8646 0.8647 0.8649 0.8650
2442.000000 0.8652 0.8653 0.8655 0.8657 0.8659
2447.000000 0.8661 0.8663 0.8665 0.8667 0.8669
2452.000000 0.8671 0.8672 0.8674 0.8675 0.8677
2457.000000 0.8678 0.8680 0.8681 0.8683 0.8684
2462.000000 0.8686 0.8687 0.8688 0.8688 0.8689
2467.000000 0.8689 0.8690 0.8690 0.8691 0.8691
2472.000000 0.8692 0.8693 0.8694 0.8694 0.8695
2477.000000 0.8696 0.8697 0.8698 0.8699 0.8699
2482.000000 0.8700 0.8701 0.8702 0.8702 0.8703
2487.000000 0.8704 0.8705 0.8705 0.8705 0.8705
2492.000000 0.8705 0.8705 0.8705 0.8705 0.8705
2497.000000 0.8705 0.8706 0.8706 0.8706 0.8706
2502.000000 0.8706 0.8706 0.8706 0.8705 0.8704
2507.000000 0.8703 0.8703 0.8702 0.8701 0.8700
2512.000000 0.8699 0.8698 0.8697 0.8696 0.8695
2517.000000 0.8694 0.8694 0.8693 0.8692 0.8691
2522.000000 0.8690 0.8689 0.8688 0.8687 0.8686
2527.000000 0.8684 0.8683 0.8682 0.8681 0.8679
2532.000000 0.8678 0.8676 0.8675 0.8674 0.8658
2537.000000 0.8671 0.8670 0.8668 0.8667 0.8666
2542.000000 0.8665 0.8663 0.8662 0.8660 0.8659
2547.000000 0.8657 0.8656 0.8654 0.8653 0.8651
2552.000000 0.8650 0.8648 0.8647 0.8645 0.8643
2557.000000 0.8641 0.8640 0.8638 0.8637 0.8635
2562.000000 0.8634 0.8632 0.8631 0.8629 0.8628
2567.000000 0.8626 0.8624 0.8622 0.8621 0.8619
2572.000000 0.8618 0.8616 0.8615 0.8613 0.8612
2577.000000 0.8610 0.8609 0.8607 0.8605 0.8603
2582.000000 0.8602 0.8600 0.8599 0.8596 0.8593
2587.000000 0.8590 0.8587 0.8584 0.8581 0.8578
2592.000000 0.8575 0.8572 0.8569 0.8566 0.8563
2597.000000 0.8559 0.8556 0.8553 0.8550 0.8547
2602.000000 0.8544 0.8541 0.8538 0.8535 0.8533
2607.000000 0.8530 0.8527 0.8524 0.8521 0.8522
2612.000000 0.8523 0.8527 0.8531 0.8537 0.8543
2617.000000 0.8549 0.8556 0.8561 0.8567 0.8572
2622.000000 0.8578 0.8583 0.8588 0.8593 0.8598
2627.000000 0.8600 0.8602 0.8603 0.8604 0.8604
2632.000000 0.8605 0.8604 0.8604 0.8603 0.8603
2637.000000 0.8602 0.8601 0.8600 0.8599 0.8597
2642.000000 0.8596 0.8595 0.8594 0.8592 0.8591
2647.000000 0.8590 0.8590 0.8589 0.8589 0.8588
2652.000000 0.8588 0.8588 0.8588 0.8587 0.8587
2657.000000 0.8586 0.8586 0.8585 0.8585 0.8584
2662.000000 0.8584 0.8585 0.8587 0.8590 0.8594
2667.000000 0.8600 0.8606 0.8616 0.8626 0.8637
2672.000000 0.8648 0.8656 0.8664 0.8666 0.8669
2677.000000 0.8670 0.8672 0.8673 0.8674 0.8675
2682.000000 0.8677 0.8678 0.8679 0.8680 0.8682
2687.000000 0.8682 0.8683 0.8684 0.8685 0.8686
2692.000000 0.8687 0.8687 0.8688 0.8689 0.8690
2697.000000 0.8690 0.8690 0.8690 0.8690 0.8690
2702.000000 0.8690 0.8690 0.8690 0.8690 0.8691
2707.000000 0.8691 0.8691 0.8691 0.8691 0.8690
2712.000000 0.8690 0.8690 0.8690 0.8689 0.8689
2717.000000 0.8689 0.8689 0.8688 0.8688 0.8688
2722.000000 0.8688 0.8687 0.8687 0.8687 0.8687
2727.000000 0.8687 0.8687 0.8686 0.8686 0.8686
2732.000000 0.8686 0.8686 0.8686 0.8685 0.8685
2737.000000 0.8685 0.8685 0.8684 0.8683 0.8681
2742.000000 0.8680 0.8679 0.8678 0.8677 0.8676
2747.000000 0.8674 0.8673 0.8672 0.8671 0.8670
2752.000000 0.8669 0.8668 0.8667 0.8666 0.8665
2757.000000 0.8664 0.8663 0.8661 0.8660 0.8659
2762.000000 0.8658 0.8657 0.8656 0.8654 0.8652
2767.000000 0.8649 0.8647 0.8644 0.8641 0.8638
2772.000000 0.8636 0.8633 0.8630 0.8627 0.8625
2777.000000 0.8622 0.8619 0.8616 0.8613 0.8610
2782.000000 0.8608 0.8605 0.8602 0.8597 0.8593
2787.000000 0.8588 0.8584 0.8579 0.8575 0.8570
2792.000000 0.8566 0.8561 0.8556 0.8550 0.8545
2797.000000 0.8539 0.8534 0.8529 0.8524 0.8518
2802.000000 0.8513 0.8507 0.8502 0.8494 0.8487
2807.000000 0.8480 0.8473 0.8466 0.8459 0.8452
2812.000000 0.8445 0.8438 0.8431 0.8424 0.8417
2817.000000 0.8411 0.8405 0.8399 0.8394 0.8388
2822.000000 0.8383 0.8379 0.8375 0.8373 0.8371
2827.000000 0.8368 0.8366 0.8364 0.8362 0.8359
2832.000000 0.8357 0.8354 0.8352 0.8349 0.8346
2837.000000 0.8342 0.8339 0.8336 0.8333 0.8330
2842.000000 0.8327 0.8317 0.8307 0.8285 0.8264
2847.000000 0.8230 0.8197 0.8160 0.8124 0.8087
2852.000000 0.8051 0.8013 0.7975 0.7934 0.7893
2857.000000 0.7851 0.7809 0.7773 0.7737 0.7708
2862.000000 0.7680 0.7654 0.7628 0.7604 0.7580
2867.000000 0.7571 0.7563 0.7554 0.7546 0.7537
2872.000000 0.7529 0.7520 0.7511 0.7499 0.7488
2877.000000 0.7482 0.7476 0.7474 0.7472 0.7473
2882.000000 0.7475 0.7479 0.7468 0.7488 0.7494
2887.000000 0.7505 0.7516 0.7526 0.7537 0.7548
2892.000000 0.7560 0.7571 0.7583 0.7598 0.7613
2897.000000 0.7628 0.7644 0.7668 0.7693 0.7732
2902.000000 0.7771 0.7778 0.7785 0.7786 0.7785
2907.000000 0.7785 0.7783 0.7778 0.7773 0.7766
2912.000000 0.7760 0.7746 0.7733 0.7715 0.7697
2917.000000 0.7537 0.7378 0.7217 0.7057 0.7001
2922.000000 0.6946 0.6873 0.6800 0.6752 0.6704
2927.000000 0.6679 0.6655 0.6649 0.6643 0.6644
2932.000000 0.6623 0.6647 0.6649 0.6652 0.6655
2937.000000 0.6673 0.6692 0.6738 0.6785 0.6832
2942.000000 0.6879 0.6926 0.6974 0.7021 0.7069
2947.000000 0.7116 0.7164 0.7211 0.7259 0.7297
2952.000000 0.7322 0.7329 0.7323 0.7312 0.7301
2957.000000 0.7240 0.7179 0.7113 0.7048 0.6982
2962.000000 0.6916 0.6850 0.6784 0.6718 0.6652
2967.000000 0.6652 0.6653 0.6659 0.6652 0.6683
2972.000000 0.6701 0.6738 0.6776 0.6993 0.7210
2977.000000 0.7449 0.7689 0.7889 0.8089 0.8144
2982.000000 0.8199 0.8239 0.8279 0.8308 0.8338
2987.000000 0.8362 0.8387 0.8399 0.8412 0.8424
2992.000000 0.8437 0.8446 0.8455 0.8460 0.8466
2997.000000 0.8471 0.8469 0.8477 0.8479 0.8478
3002.000000 0.8477 0.8472 0.8468 0.8463 0.8459
3007.000000 0.8446 0.8433 0.8409 0.8385 0.8357
3012.000000 0.8329 0.8274 0.8219 0.8131 0.8043
3017.000000 0.7912 0.7782 0.7464 0.7146 0.6867
3022.000000 0.6589 0.6310 0.6032 0.5753 0.5475
3027.000000 0.5196 0.4918 0.4620 0.4322 0.3507
3032.000000 0.2692 0.2063 0.1434 0.1387 0.1340
3037.000000 0.1269 0.1198 0.1145 0.1093 0.1068
3042.000000 0.1044 0.1050 0.1057 0.1121 0.1185
3047.000000 0.1249 0.1027 0.1335 0.1358 0.1316
3052.000000 0.1274 0.1188 0.1103 0.1069 0.1035
3057.000000 0.1166 0.1298 0.1576 0.1855 0.2133
3062.000000 0.2411 0.2689 0.2967 0.3223 0.3479
3067.000000 0.3449 0.3419 0.3295 0.3171 0.3121
3072.000000 0.3072 0.3206 0.3340 0.3474 0.3609
3077.000000 0.3663 0.3691 0.3558 0.3399 0.3075
3082.000000 0.2752 0.2473 0.2194 0.2174 0.2155
3087.000000 0.2148 0.2141 0.2134 0.2128 0.2125
3092.000000 0.2122 0.2166 0.2147 0.2282 0.2355
3097.000000 0.2427 0.2500 0.2558 0.2616 0.2603
3102.000000 0.2590 0.2545 0.2501 0.2456 0.2411
3107.000000 0.2383 0.2356 0.2436 0.2516 0.2569
3112.000000 0.2623 0.2804 0.2986 0.3509 0.4032
3117.000000 0.4555 0.5078 0.5601 0.6124 0.6647
3122.000000 0.7170 0.7658 0.8147 0.8248 0.8349
3127.000000 0.8407 0.8465 0.8493 0.8522 0.8540
3132.000000 0.8559 0.8573 0.8587 0.8598 0.8609
3137.000000 0.8617 0.8626 0.8631 0.8637 0.8641
3142.000000 0.8645 0.8647 0.8649 0.8651 0.8653
3147.000000 0.8654 0.8656 0.8657 0.8658 0.8659
3152.000000 0.8660 0.8661 0.8662 0.8662 0.8663
3157.000000 0.8664 0.8665 0.8665 0.8666 0.8667
3162.000000 0.8668 0.8668 0.8669 0.8670 0.8671
3167.000000 0.8671 0.8672 0.8672 0.8673 0.8673
3172.000000 0.8674 0.8674 0.8675 0.8675 0.8676
3177.000000 0.8676 0.8676 0.8676 0.8677 0.8677
3182.000000 0.8678 0.8678 0.8679 0.8679 0.8680
3187.000000 0.8680 0.8680 0.8680 0.8681 0.8681
3192.000000 0.8681 0.8681 0.8682 0.8682 0.8682
3197.000000 0.8682 0.8683 0.8683 0.8683 0.8683
3202.000000 0.8684 0.8684 0.8684 0.8684 0.8685
3207.000000 0.8685 0.8685 0.8685 0.8686 0.8686
3212.000000 0.8687 0.8687 0.8688 0.8688 0.8689
3217.000000 0.8689 0.8689 0.8689 0.8690 0.8690
3222.000000 0.8691 0.8691 0.8692 0.8692 0.8693
3227.000000 0.8693 0.8694 0.8694 0.8695 0.8695
3232.000000 0.8696 0.8696 0.8697 0.8697 0.8698
3237.000000 0.8699 0.8700 0.8700 0.8701 0.8701
3242.000000 0.8702 0.8702 0.8703 0.8703 0.8704
3247.000000 0.8705 0.8706 0.8706 0.8707 0.8707
3252.000000 0.8708 0.8708 0.8709 0.8709 0.8710
3257.000000 0.8710 0.8711 0.8710 0.8710 0.8710
3262.000000 0.8710 0.8710 0.8710 0.8710 0.8710
3267.000000 0.8709 0.8709 0.8709 0.8709 0.8709
3272.000000 0.8709 0.8709 0.8709 0.8708 0.8708
3277.000000 0.8708 0.8709 0.8709 0.8709 0.8709
3282.000000 0.8710 0.8710 0.8711 0.8711 0.8712
3287.000000 0.8712 0.8712 0.8712 0.8713 0.8713
3292.000000 0.8714 0.8714 0.8714 0.8714 0.8715
3297.000000 0.8715 0.8716 0.8716 0.8717 0.8717
3302.000000 0.8717 0.8717 0.8718 0.8718 0.8719
3307.000000 0.8719 0.8720 0.8720 0.8721 0.8721
3312.000000 0.8722 0.8722 0.8722 0.8722 0.8723
3317.000000 0.8723 0.8724 0.8724 0.8725 0.8725
3322.000000 0.8726 0.8726 0.8727 0.8727 0.8728
3327.000000 0.8728 0.8729 0.8729 0.8730 0.8731
3332.000000 0.8732 0.8732 0.8733 0.8733 0.8734
3337.000000 0.8734 0.8735 0.8735 0.8736 0.8736
3342.000000 0.8737 0.8737 0.8738 0.8738 0.8739
3347.000000 0.8739 0.8739 0.8739 0.8739 0.8739
3352.000000 0.8740 0.8740 0.8740 0.8740 0.8740
3357.000000 0.8740 0.8740 0.8740 0.8740 0.8740
3362.000000 0.8740 0.8739 0.8739 0.8738 0.8738
3367.000000 0.8738 0.8738 0.8737 0.8737 0.8736
3372.000000 0.8736 0.8735 0.8735 0.8734 0.8734
3377.000000 0.8734 0.8734 0.8733 0.8733 0.8733
3382.000000 0.8733 0.8733 0.8733 0.8732 0.8732
3387.000000 0.8732 0.8732 0.8732 0.8732 0.8731
3392.000000 0.8731 0.8731 0.8731 0.8731 0.8731
3397.000000 0.8729 0.8728 0.8727 0.8726 0.8725
3402.000000 0.8724 0.8723 0.8722 0.8721 0.8720
3407.000000 0.8718 0.8717 0.8716 0.8715 0.8714
3412.000000 0.8713 0.8712 0.8711 0.8709 0.8708
3417.000000 0.8707 0.8706 0.8705 0.8704 0.8702
3422.000000 0.8701 0.8699 0.8698 0.8697 0.8696
3427.000000 0.8694 0.8693 0.8691 0.8690 0.8689
3432.000000 0.8688 0.8686 0.8685 0.8683 0.8682
3437.000000 0.8680 0.8679 0.8679 0.8679 0.8679
3442.000000 0.8679 0.8679 0.8679 0.8679 0.8679
3447.000000 0.8680 0.8682 0.8684 0.8686 0.8687
3452.000000 0.8689 0.8690 0.8692 0.8693 0.8694
3457.000000 0.8695 0.8696 0.8696 0.8697 0.8698
3462.000000 0.8699 0.8699 0.8700 0.8700 0.8700
3467.000000 0.8700 0.8700 0.8700 0.8700 0.8700
3472.000000 0.8700 0.8700 0.8700 0.8700 0.8701
3477.000000 0.8701 0.8702 0.8702 0.8702 0.8702
3482.000000 0.8703 0.8703 0.8704 0.8704 0.8705
3487.000000 0.8707 0.8709 0.8710 0.8712 0.8714
3492.000000 0.8716 0.8718 0.8720 0.8721 0.8722
3497.000000 0.8722 0.8723 0.8723 0.8724 0.8724
3502.000000 0.8725 0.8725 0.8725 0.8724 0.8724
3507.000000 0.8724 0.8724 0.8723 0.8723 0.8722
3512.000000 0.8722 0.8721 0.8721 0.8720 0.8719
3517.000000 0.8718 0.8717 0.8716 0.8715 0.8713
3522.000000 0.8712 0.8711 0.8710 0.8709 0.8708
3527.000000 0.8707 0.8706 0.8705 0.8705 0.8704
3532.000000 0.8704 0.8703 0.8703 0.8702 0.8702
3537.000000 0.8701 0.8701 0.8700 0.8699 0.8698
3542.000000 0.8698 0.8697 0.8696 0.8695 0.8695
3547.000000 0.8694 0.8693 0.8692 0.8692 0.8691
3552.000000 0.8690 0.8689 0.8688 0.8687 0.8687
3557.000000 0.8686 0.8686 0.8685 0.8685 0.8684
3562.000000 0.8684 0.8684 0.8684 0.8683 0.8683
3567.000000 0.8682 0.8682 0.8682 0.8682 0.8681
3572.000000 0.8681 0.8680 0.8680 0.8679 0.8679
3577.000000 0.8678 0.8678 0.8677 0.8676 0.8675
3582.000000 0.8674 0.8673 0.8673 0.8672 0.8671
3587.000000 0.8670 0.8669 0.8668 0.8667 0.8666
3592.000000 0.8665 0.8663 0.8661 0.8658 0.8656
3597.000000 0.8653 0.8651 0.8648 0.8646 0.8643
3602.000000 0.8641 0.8638 0.8636 0.8633 0.8631
3607.000000 0.8627 0.8624 0.8619 0.8615 0.8610
3612.000000 0.8606 0.8601 0.8597 0.8592 0.8588
3617.000000 0.8583 0.8579 0.8572 0.8566 0.8560
3622.000000 0.8554 0.8548 0.8542 0.8537 0.8533
3627.000000 0.8529 0.8525 0.8520 0.8516 0.8512
3632.000000 0.8508 0.8506 0.8505 0.8503 0.8502
3637.000000 0.8504 0.8506 0.8507 0.8509 0.8510
3642.000000 0.8512 0.8518 0.8524 0.8534 0.8544
3647.000000 0.8555 0.8567 0.8578 0.8590 0.8599
3652.000000 0.8609 0.8618 0.8627 0.8634 0.8641
3657.000000 0.8640 0.8639 0.8635 0.8632 0.8627
3662.000000 0.8622 0.8616 0.8611 0.8603 0.8595
3667.000000 0.8586 0.8578 0.8567 0.8556 0.8544
3672.000000 0.8532 0.8519 0.8507 0.8500 0.8494
3677.000000 0.8488 0.8482 0.8480 0.8479 0.8480
3682.000000 0.8481 0.8484 0.8487 0.8490 0.8493
3687.000000 0.8497 0.8502 0.8509 0.8516 0.8523
3692.000000 0.8530 0.8541 0.8553 0.8567 0.8581
3697.000000 0.8595 0.8609 0.8623 0.8637 0.8642
3702.000000 0.8648 0.8651 0.8654 0.8657 0.8660
3707.000000 0.8662 0.8664 0.8664 0.8664 0.8664
3712.000000 0.8664 0.8664 0.8664 0.8663 0.8663
3717.000000 0.8662 0.8662 0.8661 0.8661 0.8660
3722.000000 0.8660 0.8659 0.8659 0.8658 0.8658
3727.000000 0.8657 0.8657 0.8657 0.8657 0.8656
3732.000000 0.8656 0.8656 0.8656 0.8656 0.8656
3737.000000 0.8655 0.8655 0.8655 0.8655 0.8655
3742.000000 0.8655 0.8654 0.8654 0.8654 0.8655
3747.000000 0.8655 0.8655 0.8655 0.8656 0.8656
3752.000000 0.8657 0.8657 0.8657 0.8657 0.8658
3757.000000 0.8658 0.8658 0.8658 0.8659 0.8659
3762.000000 0.8660 0.8660 0.8661 0.8661 0.8662
3767.000000 0.8662 0.8663 0.8664 0.8665 0.8665
3772.000000 0.8666 0.8666 0.8667 0.8668 0.8669
3777.000000 0.8670 0.8671 0.8672 0.8673 0.8673
3782.000000 0.8674 0.8675 0.8676 0.8677 0.8678
3787.000000 0.8679 0.8680 0.8681 0.8682 0.8683
3792.000000 0.8684 0.8684 0.8684
##END=
