##TITLE=METHANE
##JCAMP-DX=4.24
##DATA TYPE=INFRARED SPECTRUM
##CLASS=COBLENTZ
##ORIGIN=DOW CHEMICAL COMPANY
##OWNER=COBLENTZ SOCIETY
Collection (C) 2018 copyright by the U.S. Secretary of Commerce
on behalf of the United States of America. All rights reserved.
##DATE=1964
##CAS REGISTRY NO=74-82-8
##MOLFORM=C H4
##SOURCE REFERENCE=COBLENTZ NO. 8873
##$NIST SOURCE=COBLENTZ
##$NIST IMAGE=cob8873
##SPECTROMETER/DATA SYSTEM=DOW KBr FOREPRISM
##INSTRUMENT PARAMETERS=GRATING CHANGED AT 5.0, 7.5, 15.0 MICRON
##STATE=GAS (150 mmHg DILUTED TO A TOTAL PRESSURE OF 600 mmHg WITH N2)
##PATH LENGTH=5 CM
##SAMPLING PROCEDURE=TRANSMISSION
##RESOLUTION=4
##DATA PROCESSING=DIGITIZED BY NIST FROM HARD COPY (FROM TWO SEGMENTS)
##XUNITS=1/CM
##YUNITS=TRANSMITTANCE
##XFACTOR=1.000000
##YFACTOR=1
##DELTAX=0.935748
##FIRSTX=449.47
##LASTX=3801.32
##FIRSTY=0.953
##MAXX=3801.32
##MINX=449.47
##MAXY=1.03697
##MINY=0.028
##NPOINTS=3583
##XYDATA=(X++(Y..Y))
449.470000 0.9530 0.9530 0.9530 0.9530 0.9530
454.148739 0.9530 0.9530 0.9530 0.9530 0.9530
458.827478 0.9530 0.9530 0.9520 0.9520 0.9520
463.506218 0.9520 0.9520 0.9520 0.9530 0.9530
468.184957 0.9530 0.9550 0.9560 0.9560 0.9560
472.863696 0.9560 0.9560 0.9550 0.9550 0.9530
477.542435 0.9530 0.9530 0.9530 0.9530 0.9530
482.221174 0.9530 0.9550 0.9550 0.9550 0.9530
486.899914 0.9530 0.9530 0.9530 0.9530 0.9520
491.578653 0.9520 0.9520 0.9520 0.9520 0.9520
496.257392 0.9520 0.9520 0.9520 0.9520 0.9520
500.936131 0.9520 0.9510 0.9510 0.9510 0.9510
505.614871 0.9490 0.9490 0.9490 0.9490 0.9490
510.293610 0.9490 0.9490 0.9490 0.9490 0.9490
514.972349 0.9480 0.9480 0.9480 0.9480 0.9480
519.651088 0.9480 0.9480 0.9480 0.9490 0.9480
524.329827 0.9480 0.9480 0.9480 0.9480 0.9480
529.008567 0.9490 0.9490 0.9490 0.9490 0.9490
533.687306 0.9490 0.9490 0.9480 0.9480 0.9480
538.366045 0.9480 0.9480 0.9490 0.9490 0.9490
543.044784 0.9510 0.9510 0.9510 0.9510 0.9510
547.723523 0.9510 0.9520 0.9520 0.9530 0.9530
552.402263 0.9530 0.9530 0.9530 0.9530 0.9530
557.081002 0.9530 0.9530 0.9530 0.9530 0.9530
561.759741 0.9550 0.9550 0.9550 0.9560 0.9560
566.438480 0.9560 0.9560 0.9560 0.9580 0.9590
571.117219 0.9590 0.9590 0.9590 0.9580 0.9590
575.795959 0.9590 0.9590 0.9590 0.9590 0.9610
580.474698 0.9610 0.9610 0.9610 0.9610 0.9620
585.153437 0.9620 0.9620 0.9620 0.9620 0.9620
589.832176 0.9630 0.9630 0.9630 0.9650 0.9650
594.510915 0.9650 0.9660 0.9660 0.9660 0.9680
599.189655 0.9680 0.9680 0.9680 0.9690 0.9690
603.868394 0.9690 0.9690 0.9690 0.9690 0.9690
608.547133 0.9690 0.9690 0.9690 0.9710 0.9710
613.225872 0.9710 0.9710 0.9710 0.9710 0.9710
617.904612 0.9710 0.9710 0.9710 0.9720 0.9710
622.583351 0.9710 0.9710 0.9710 0.9710 0.9710
627.262090 0.9720 0.9720 0.9720 0.9720 0.9740
631.940829 0.9720 0.9740 0.9740 0.9740 0.9740
636.619568 0.9740 0.9740 0.9740 0.9750 0.9750
641.298308 0.9750 0.9750 0.9750 0.9750 0.9750
645.977047 0.9750 0.9750 0.9750 0.9750 0.9750
650.655786 0.9750 0.9750 0.9750 0.9760 0.9760
655.334525 0.9760 0.9760 0.9760 0.9760 0.9760
660.013264 0.9760 0.9760 0.9760 0.9760 0.9760
664.692004 0.9760 0.9760 0.9760 0.9760 0.9760
669.370743 0.9760 0.9760 0.9760 0.9780 0.9780
674.049482 0.9780 0.9780 0.9780 0.9790 0.9790
678.728221 0.9790 0.9790 0.9810 0.9810 0.9810
683.406960 0.9810 0.9810 0.9810 0.9810 0.9810
688.085700 0.9820 0.9820 0.9820 0.9820 0.9840
692.764439 0.9840 0.9840 0.9850 0.9850 0.9850
697.443178 0.9850 0.9870 0.9870 0.9870 0.9880
702.121917 0.9880 0.9880 0.9880 0.9880 0.9880
706.800656 0.9880 0.9880 0.9880 0.9880 0.9890
711.479396 0.9890 0.9890 0.9890 0.9880 0.9880
716.158135 0.9890 0.9910 0.9920 1.0040 1.0369
720.836874 1.0370 1.0050 0.9980 0.9890 0.9880
725.515613 0.9880 0.9880 0.9880 0.9880 0.9880
730.194353 0.9890 0.9910 0.9910 0.9910 0.9910
734.873092 0.9920 0.9910 0.9910 0.9910 0.9910
739.551831 0.9910 0.9910 0.9910 0.9920 0.9920
744.230570 0.9910 0.9910 0.9910 0.9890 0.9890
748.909309 0.9910 0.9910 0.9880 0.9880 0.9880
753.588049 0.9880 0.9880 0.9880 0.9880 0.9880
758.266788 0.9880 0.9880 0.9870 0.9870 0.9870
762.945527 0.9870 0.9870 0.9870 0.9870 0.9870
767.624266 0.9870 0.9870 0.9880 0.9880 0.9870
772.303005 0.9870 0.9870 0.9870 0.9870 0.9870
776.981745 0.9870 0.9850 0.9850 0.9850 0.9850
781.660484 0.9850 0.9850 0.9850 0.9850 0.9850
786.339223 0.9850 0.9850 0.9870 0.9850 0.9850
791.017962 0.9850 0.9850 0.9850 0.9850 0.9850
795.696701 0.9850 0.9850 0.9850 0.9850 0.9840
800.375441 0.9840 0.9840 0.9840 0.9840 0.9840
805.054180 0.9840 0.9840 0.9840 0.9840 0.9840
809.732919 0.9840 0.9840 0.9840 0.9840 0.9840
814.411658 0.9840 0.9840 0.9840 0.9840 0.9840
819.090397 0.9840 0.9840 0.9840 0.9840 0.9840
823.769137 0.9840 0.9840 0.9850 0.9850 0.9850
828.447876 0.9850 0.9850 0.9850 0.9850 0.9850
833.126615 0.9850 0.9850 0.9850 0.9850 0.9850
837.805354 0.9850 0.9850 0.9850 0.9850 0.9850
842.484094 0.9850 0.9850 0.9850 0.9850 0.9850
847.162833 0.9850 0.9850 0.9850 0.9850 0.9850
851.841572 0.9850 0.9850 0.9850 0.9850 0.9850
856.520311 0.9850 0.9850 0.9850 0.9850 0.9850
861.199050 0.9850 0.9850 0.9850 0.9850 0.9850
865.877790 0.9850 0.9850 0.9850 0.9850 0.9850
870.556529 0.9850 0.9840 0.9840 0.9840 0.9840
875.235268 0.9840 0.9840 0.9840 0.9840 0.9840
879.914007 0.9840 0.9840 0.9840 0.9840 0.9850
884.592746 0.9850 0.9850 0.9850 0.9850 0.9850
889.271486 0.9850 0.9850 0.9850 0.9850 0.9850
893.950225 0.9850 0.9840 0.9840 0.9850 0.9850
898.628964 0.9850 0.9850 0.9870 0.9870 0.9870
903.307703 0.9850 0.9850 0.9850 0.9850 0.9870
907.986442 0.9870 0.9870 0.9870 0.9870 0.9880
912.665182 0.9880 0.9880 0.9880 0.9890 0.9890
917.343921 0.9890 0.9890 0.9890 0.9890 0.9880
922.022660 0.9890 0.9890 0.9890 0.9890 0.9890
926.701399 0.9890 0.9890 0.9890 0.9890 0.9910
931.380138 0.9890 0.9910 0.9910 0.9910 0.9910
936.058878 0.9910 0.9910 0.9910 0.9910 0.9910
940.737617 0.9910 0.9920 0.9910 0.9910 0.9910
945.416356 0.9910 0.9910 0.9890 0.9890 0.9910
950.095095 0.9920 0.9940 0.9940 0.9940 0.9940
954.773835 0.9940 0.9940 0.9950 0.9950 0.9950
959.452574 0.9970 0.9970 0.9970 0.9970 0.9970
964.131313 0.9950 0.9970 0.9970 0.9970 0.9970
968.810052 0.9970 0.9970 0.9970 0.9970 0.9980
973.488791 0.9980 0.9980 0.9980 0.9980 0.9980
978.167531 0.9980 1.0010 1.0010 1.0010 1.0010
982.846270 1.0010 1.0010 1.0010 1.0010 1.0010
987.525009 1.0010 1.0010 1.0010 1.0010 1.0010
992.203748 1.0010 1.0010 1.0010 1.0010 1.0010
996.882487 1.0010 1.0010 1.0010 1.0010 1.0010
1001.561227 1.0010 1.0010 1.0010 1.0010 1.0010
1006.239966 1.0010 1.0010 1.0010 1.0010 1.0010
1010.918705 1.0010 1.0010 1.0010 1.0010 1.0010
1015.597444 1.0020 1.0040 1.0040 1.0040 1.0040
1020.276183 1.0020 1.0040 1.0040 1.0040 1.0040
1024.954923 1.0040 1.0040 1.0040 1.0050 1.0050
1029.633662 1.0070 1.0070 1.0050 1.0050 1.0050
1034.312401 1.0040 1.0040 1.0040 1.0020 1.0020
1038.991140 1.0020 1.0020 1.0020 1.0020 1.0020
1043.669879 1.0020 1.0020 1.0020 1.0020 1.0020
1048.348619 1.0020 1.0020 1.0020 1.0020 1.0020
1053.027358 1.0020 1.0020 1.0020 1.0020 1.0020
1057.706097 1.0020 1.0020 1.0020 1.0020 1.0010
1062.384836 1.0010 1.0010 1.0000 1.0020 1.0010
1067.063576 1.0010 1.0000 0.9980 0.9980 0.9980
1071.742315 0.9970 0.9970 0.9980 1.0010 1.0020
1076.421054 1.0020 1.0020 1.0020 1.0020 1.0040
1081.099793 1.0040 1.0010 1.0010 1.0010 1.0010
1085.778532 1.0010 1.0010 1.0010 1.0010 1.0010
1090.457272 1.0010 1.0000 1.0000 1.0020 1.0020
1095.136011 1.0020 1.0020 1.0020 1.0020 1.0020
1099.814750 1.0020 1.0040 1.0040 1.0040 1.0040
1104.493489 1.0020 1.0040 1.0040 1.0040 1.0040
1109.172228 1.0040 1.0040 1.0040 1.0040 1.0040
1113.850968 1.0040 1.0040 1.0040 1.0040 1.0040
1118.529707 1.0040 1.0040 1.0040 1.0040 1.0040
1123.208446 1.0040 1.0050 1.0040 1.0040 1.0020
1127.887185 1.0020 1.0020 1.0010 1.0010 1.0010
1132.565924 1.0000 1.0000 0.9980 0.9980 0.9970
1137.244664 0.9940 0.9920 0.9920 0.9920 0.9940
1141.923403 0.9940 0.9970 0.9980 0.9980 1.0000
1146.602142 1.0000 1.0000 1.0000 1.0000 1.0000
1151.280881 1.0010 1.0010 1.0010 1.0020 1.0020
1155.959620 1.0010 1.0000 0.9980 0.9980 1.0020
1160.638360 1.0020 1.0020 1.0020 1.0010 1.0000
1165.317099 1.0000 1.0000 1.0000 1.0000 1.0000
1169.995838 0.9980 1.0020 1.0010 0.9980 0.9950
1174.674577 0.9920 0.9910 0.9880 0.9850 0.9820
1179.353317 0.9810 0.9820 0.9850 0.9890 0.9920
1184.032056 0.9950 0.9950 0.9940 0.9910 0.9880
1188.710795 0.9810 0.9760 0.9740 0.9760 0.9840
1193.389534 0.9890 0.9890 0.9890 0.9910 0.9910
1198.068273 0.9880 0.9810 0.9780 0.9630 0.9680
1202.747013 0.9840 0.9880 1.0010 1.0010 0.9980
1207.425752 0.9940 0.9920 0.9890 0.9160 0.9130
1212.104491 1.0139 1.0140 1.0110 0.9761 0.9401
1216.783230 0.9350 0.9330 0.9170 0.8780 0.8780
1221.461969 0.8810 0.9020 0.9090 0.9319 0.9420
1226.140709 0.9581 0.9880 0.9879 0.8320 0.7690
1230.819448 0.7690 0.8998 0.9878 0.9810 0.8535
1235.498187 0.7989 0.7469 0.6970 0.6970 0.7520
1240.176926 0.8959 0.7592 0.7360 0.7360 0.8317
1244.855665 0.7679 0.7269 0.6620 0.6621 0.7270
1249.534405 0.7290 0.8169 0.9348 0.9350 0.6956
1254.213144 0.6180 0.6183 0.7800 0.7821 0.8900
1258.891883 0.7231 0.6421 0.5991 0.5591 0.5590
1263.570622 0.6421 0.6781 0.7300 0.7310 0.7309
1268.249362 0.6030 0.5660 0.5470 0.5280 0.5789
1272.928101 0.6522 0.7442 0.8909 0.7649 0.5990
1277.606840 0.5990 0.6909 0.7469 0.8777 0.8830
1282.285579 0.7856 0.6257 0.4653 0.6711 0.7980
1286.964318 0.8760 0.7831 0.6412 0.4983 0.4980
1291.643058 0.8180 0.8306 0.5740 0.5730 0.5700
1296.321797 0.5530 0.5430 0.5330 0.5041 0.4841
1301.000536 0.3047 0.2108 0.1189 0.0740 0.0280
1305.679275 0.0280 0.1419 0.1999 0.6351 0.8265
1310.358014 0.9347 0.8151 0.8760 0.8990 0.9580
1315.036754 0.9610 0.8681 0.8211 0.8210 0.9356
1319.715493 0.9450 0.9446 0.7530 0.7360 0.7570
1324.394232 0.9159 0.9160 0.7103 0.6521 0.6440
1329.072971 0.4775 0.3136 0.9200 0.9197 0.6818
1333.751710 0.4450 0.2071 0.2070 0.9188 0.6626
1338.430450 0.4028 0.3178 0.2350 0.9100 0.9069
1343.109189 0.6441 0.3803 0.1933 0.9044 0.9060
1347.787928 0.6813 0.4585 0.2448 0.6823 0.9198
1352.466667 0.6800 0.4391 0.3551 0.4389 0.8620
1357.145406 0.6665 0.4690 0.4648 0.2960 0.2960
1361.824146 0.4689 0.8336 0.7861 0.7341 0.6981
1366.502885 0.6590 0.6591 0.6842 0.7652 0.9190
1371.181624 0.8640 0.8470 0.7681 0.7470 0.6772
1375.860363 0.6775 0.8830 0.8640 0.8610 0.8640
1380.539103 0.8710 0.8870 0.8910 0.8930 0.8940
1385.217842 0.9140 0.9230 0.9350 0.9430 0.9550
1389.896581 0.9580 0.9660 0.9680 0.9710 0.9690
1394.575320 0.9720 0.9750 0.9760 0.9780 0.9780
1399.254059 0.9790 0.9790 0.9810 0.9820 0.9820
1403.932799 0.9820 0.9790 0.9790 0.9840 0.9840
1408.611538 0.9840 0.9840 0.9840 0.9840 0.9840
1413.290277 0.9840 0.9840 0.9840 0.9820 0.9790
1417.969016 0.9780 0.9780 0.9780 0.9850 0.9850
1422.647755 0.9820 0.9780 0.9750 0.9750 0.9820
1427.326495 0.9840 0.9850 0.9850 0.9850 0.9840
1432.005234 0.9750 0.9710 0.9720 0.9760 0.9810
1436.683973 0.9810 0.9820 0.9780 0.9720 0.9720
1441.362712 0.9810 0.9810 0.9810 0.9810 0.9810
1446.041451 0.9810 0.9790 0.9690 0.9580 0.9780
1450.720191 0.9790 0.9790 0.9780 0.9740 0.9740
1455.398930 0.9720 0.9660 0.9660 0.9740 0.9790
1460.077669 0.9810 0.9810 0.9790 0.9760 0.9760
1464.756408 0.9740 0.9740 0.9780 0.9810 0.9820
1469.435147 0.9840 0.9820 0.9810 0.9780 0.9760
1474.113887 0.9740 0.9750 0.9810 0.9850 0.9870
1478.792626 0.9870 0.9870 0.9870 0.9810 0.9810
1483.471365 0.9810 0.9810 0.9850 0.9850 0.9870
1488.150104 0.9870 0.9870 0.9870 0.9810 0.9850
1492.828844 0.9870 0.9870 0.9870 0.9870 0.9870
1497.507583 0.9880 0.9880 0.9880 0.9880 0.9880
1502.186322 0.9850 0.9810 0.9850 0.9850 0.9870
1506.865061 0.9870 0.9870 0.9870 0.9880 0.9880
1511.543800 0.9890 0.9890 0.9890 0.9890 0.9890
1516.222540 0.9890 0.9890 0.9880 0.9880 0.9880
1520.901279 0.9890 0.9880 0.9890 0.9890 0.9890
1525.580018 0.9910 0.9910 0.9910 0.9910 0.9910
1530.258757 0.9910 0.9910 0.9880 0.9820 0.9790
1534.937496 0.9710 0.9610 0.9560 0.9520 0.9480
1539.616236 0.9450 0.9450 0.9530 0.9560 0.9610
1544.294975 0.9650 0.9680 0.9690 0.9720 0.9740
1548.973714 0.9760 0.9780 0.9780 0.9790 0.9790
1553.652453 0.9810 0.9810 0.9820 0.9820 0.9820
1558.331192 0.9840 0.9840 0.9840 0.9840 0.9840
1563.009932 0.9850 0.9850 0.9870 0.9870 0.9880
1567.688671 0.9880 0.9880 0.9870 0.9870 0.9870
1572.367410 0.9850 0.9850 0.9840 0.9840 0.9840
1577.046149 0.9840 0.9850 0.9870 0.9870 0.9870
1581.724888 0.9870 0.9870 0.9870 0.9870 0.9870
1586.403628 0.9870 0.9870 0.9870 0.9880 0.9880
1591.082367 0.9890 0.9890 0.9870 0.9870 0.9870
1595.761106 0.9870 0.9850 0.9850 0.9850 0.9850
1600.439845 0.9850 0.9870 0.9870 0.9850 0.9850
1605.118585 0.9850 0.9840 0.9840 0.9840 0.9820
1609.797324 0.9790 0.9810 0.9810 0.9820 0.9820
1614.476063 0.9840 0.9840 0.9840 0.9840 0.9840
1619.154802 0.9840 0.9820 0.9810 0.9780 0.9780
1623.833541 0.9810 0.9840 0.9850 0.9850 0.9850
1628.512281 0.9850 0.9840 0.9810 0.9790 0.9790
1633.191020 0.9840 0.9840 0.9850 0.9850 0.9840
1637.869759 0.9820 0.9820 0.9820 0.9810 0.9790
1642.548498 0.9750 0.9760 0.9790 0.9790 0.9810
1647.227237 0.9810 0.9820 0.9810 0.9810 0.9790
1651.905977 0.9780 0.9790 0.9810 0.9820 0.9840
1656.584716 0.9850 0.9850 0.9870 0.9870 0.9870
1661.263455 0.9850 0.9840 0.9820 0.9810 0.9810
1665.942194 0.9810 0.9810 0.9810 0.9840 0.9840
1670.620933 0.9790 0.9790 0.9840 0.9840 0.9820
1675.299673 0.9810 0.9810 0.9810 0.9810 0.9820
1679.978412 0.9840 0.9850 0.9820 0.9820 0.9820
1684.657151 0.9820 0.9820 0.9840 0.9840 0.9840
1689.335890 0.9850 0.9790 0.9790 0.9790 0.9790
1694.014629 0.9790 0.9790 0.9790 0.9790 0.9790
1698.693369 0.9790 0.9790 0.9790 0.9820 0.9810
1703.372108 0.9790 0.9790 0.9790 0.9790 0.9790
1708.050847 0.9790 0.9790 0.9790 0.9790 0.9780
1712.729586 0.9780 0.9780 0.9780 0.9780 0.9790
1717.408326 0.9810 0.9810 0.9790 0.9810 0.9810
1722.087065 0.9790 0.9790 0.9790 0.9790 0.9790
1726.765804 0.9790 0.9790 0.9780 0.9780 0.9780
1731.444543 0.9790 0.9810 0.9820 0.9820 0.9820
1736.123282 0.9820 0.9820 0.9810 0.9810 0.9810
1740.802022 0.9810 0.9810 0.9810 0.9810 0.9810
1745.480761 0.9810 0.9810 0.9810 0.9810 0.9810
1750.159500 0.9810 0.9810 0.9810 0.9810 0.9820
1754.838239 0.9820 0.9820 0.9820 0.9820 0.9820
1759.516978 0.9820 0.9820 0.9820 0.9820 0.9820
1764.195718 0.9820 0.9820 0.9820 0.9820 0.9820
1768.874457 0.9820 0.9820 0.9840 0.9840 0.9840
1773.553196 0.9850 0.9850 0.9850 0.9850 0.9840
1778.231935 0.9840 0.9850 0.9840 0.9840 0.9840
1782.910674 0.9840 0.9840 0.9840 0.9840 0.9850
1787.589414 0.9850 0.9850 0.9850 0.9850 0.9850
1792.268153 0.9850 0.9850 0.9850 0.9850 0.9850
1796.946892 0.9850 0.9850 0.9850 0.9850 0.9850
1801.625631 0.9850 0.9850 0.9870 0.9880 0.9880
1806.304370 0.9880 0.9880 0.9880 0.9880 0.9880
1810.983110 0.9880 0.9880 0.9880 0.9880 0.9870
1815.661849 0.9870 0.9870 0.9870 0.9850 0.9850
1820.340588 0.9850 0.9850 0.9850 0.9850 0.9850
1825.019327 0.9850 0.9850 0.9850 0.9850 0.9870
1829.698067 0.9870 0.9850 0.9870 0.9850 0.9850
1834.376806 0.9870 0.9870 0.9870 0.9870 0.9850
1839.055545 0.9850 0.9850 0.9850 0.9850 0.9850
1843.734284 0.9850 0.9850 0.9850 0.9850 0.9850
1848.413023 0.9850 0.9850 0.9850 0.9850 0.9850
1853.091763 0.9850 0.9850 0.9850 0.9850 0.9850
1857.770502 0.9850 0.9850 0.9850 0.9870 0.9870
1862.449241 0.9870 0.9870 0.9870 0.9870 0.9870
1867.127980 0.9870 0.9870 0.9870 0.9870 0.9850
1871.806719 0.9850 0.9850 0.9850 0.9850 0.9850
1876.485459 0.9850 0.9850 0.9850 0.9850 0.9850
1881.164198 0.9870 0.9870 0.9850 0.9850 0.9850
1885.842937 0.9850 0.9840 0.9840 0.9840 0.9840
1890.521676 0.9840 0.9840 0.9840 0.9840 0.9840
1895.200415 0.9840 0.9840 0.9840 0.9840 0.9840
1899.879155 0.9840 0.9840 0.9840 0.9840 0.9840
1904.557894 0.9840 0.9850 0.9840 0.9840 0.9820
1909.236633 0.9820 0.9820 0.9820 0.9820 0.9820
1913.915372 0.9820 0.9820 0.9820 0.9820 0.9820
1918.594112 0.9820 0.9820 0.9840 0.9840 0.9850
1923.272851 0.9850 0.9850 0.9850 0.9840 0.9840
1927.951590 0.9840 0.9840 0.9820 0.9820 0.9820
1932.630329 0.9820 0.9820 0.9820 0.9820 0.9820
1937.309068 0.9820 0.9840 0.9840 0.9840 0.9840
1941.987808 0.9840 0.9840 0.9840 0.9840 0.9820
1946.666547 0.9820 0.9820 0.9820 0.9820 0.9820
1951.345286 0.9820 0.9820 0.9820 0.9820 0.9820
1956.024025 0.9840 0.9850 0.9850 0.9850 0.9870
1960.702764 0.9870 0.9880 0.9880 0.9870 0.9870
1965.381504 0.9870 0.9880 0.9880 0.9880 0.9890
1970.060243 0.9890 0.9890 0.9890 0.9880 0.9880
1974.738982 0.9880 0.9890 0.9880 0.9880 0.9880
1979.417721 0.9880 0.9880 0.9880 0.9880 0.9890
1984.096460 0.9890 0.9890 0.9890 0.9890 0.9890
1988.775200 0.9890 0.9890 0.9890 0.9910 0.9910
1993.453939 0.9910 0.9910 0.9910 0.9910 0.9910
1998.132678 0.9910 0.9910 0.9910 0.9915 0.9920
2002.811417 0.9915 0.9910 0.9910 0.9910 0.9910
2007.490156 0.9910 0.9910 0.9910 0.9910 0.9910
2012.168896 0.9910 0.9910 0.9910 0.9910 0.9910
2016.847635 0.9910 0.9910 0.9910 0.9910 0.9910
2021.526374 0.9910 0.9910 0.9910 0.9910 0.9901
2026.205113 0.9891 0.9890 0.9890 0.9890 0.9890
2030.883853 0.9899 0.9909 0.9910 0.9910 0.9910
2035.562592 0.9910 0.9910 0.9910 0.9910 0.9910
2040.241331 0.9910 0.9910 0.9901 0.9891 0.9890
2044.920070 0.9890 0.9890 0.9890 0.9898 0.9908
2049.598809 0.9902 0.9892 0.9890 0.9890 0.9890
2054.277549 0.9890 0.9890 0.9890 0.9890 0.9890
2058.956288 0.9890 0.9890 0.9890 0.9890 0.9890
2063.635027 0.9890 0.9890 0.9890 0.9890 0.9890
2068.313766 0.9890 0.9890 0.9890 0.9890 0.9890
2072.992505 0.9890 0.9890 0.9890 0.9890 0.9890
2077.671245 0.9890 0.9890 0.9890 0.9890 0.9890
2082.349984 0.9890 0.9890 0.9890 0.9890 0.9890
2087.028723 0.9890 0.9890 0.9890 0.9890 0.9890
2091.707462 0.9890 0.9890 0.9890 0.9890 0.9890
2096.386201 0.9890 0.9890 0.9890 0.9890 0.9890
2101.064941 0.9890 0.9890 0.9890 0.9890 0.9890
2105.743680 0.9890 0.9890 0.9890 0.9890 0.9890
2110.422419 0.9890 0.9890 0.9890 0.9890 0.9890
2115.101158 0.9890 0.9890 0.9887 0.9882 0.9880
2119.779897 0.9880 0.9883 0.9888 0.9890 0.9890
2124.458637 0.9890 0.9890 0.9890 0.9890 0.9887
2129.137376 0.9882 0.9880 0.9880 0.9880 0.9880
2133.816115 0.9880 0.9880 0.9880 0.9880 0.9880
2138.494854 0.9880 0.9880 0.9880 0.9880 0.9880
2143.173594 0.9880 0.9880 0.9880 0.9880 0.9880
2147.852333 0.9880 0.9880 0.9880 0.9880 0.9880
2152.531072 0.9880 0.9880 0.9880 0.9880 0.9880
2157.209811 0.9880 0.9883 0.9888 0.9890 0.9890
2161.888550 0.9890 0.9890 0.9890 0.9890 0.9890
2166.567290 0.9890 0.9890 0.9890 0.9895 0.9905
2171.246029 0.9910 0.9910 0.9910 0.9910 0.9910
2175.924768 0.9910 0.9910 0.9910 0.9910 0.9910
2180.603507 0.9910 0.9910 0.9910 0.9910 0.9910
2185.282246 0.9910 0.9910 0.9910 0.9910 0.9910
2189.960986 0.9910 0.9910 0.9906 0.9896 0.9890
2194.639725 0.9890 0.9894 0.9904 0.9910 0.9910
2199.318464 0.9910 0.9910 0.9910 0.9910 0.9910
2203.997203 0.9910 0.9910 0.9910 0.9910 0.9910
2208.675942 0.9910 0.9910 0.9910 0.9910 0.9910
2213.354682 0.9910 0.9910 0.9910 0.9910 0.9910
2218.033421 0.9910 0.9910 0.9910 0.9910 0.9910
2222.712160 0.9910 0.9910 0.9910 0.9910 0.9910
2227.390899 0.9910 0.9910 0.9910 0.9910 0.9910
2232.069638 0.9910 0.9910 0.9910 0.9910 0.9910
2236.748378 0.9910 0.9910 0.9910 0.9910 0.9910
2241.427117 0.9910 0.9910 0.9910 0.9910 0.9910
2246.105856 0.9910 0.9910 0.9910 0.9910 0.9910
2250.784595 0.9910 0.9910 0.9910 0.9910 0.9910
2255.463335 0.9910 0.9910 0.9910 0.9910 0.9910
2260.142074 0.9910 0.9910 0.9910 0.9910 0.9910
2264.820813 0.9910 0.9910 0.9910 0.9910 0.9910
2269.499552 0.9910 0.9908 0.9898 0.9890 0.9890
2274.178291 0.9890 0.9890 0.9890 0.9890 0.9890
2278.857031 0.9890 0.9890 0.9890 0.9890 0.9890
2283.535770 0.9890 0.9890 0.9889 0.9884 0.9880
2288.214509 0.9880 0.9880 0.9880 0.9880 0.9875
2292.893248 0.9870 0.9870 0.9870 0.9870 0.9870
2297.571987 0.9870 0.9869 0.9859 0.9850 0.9850
2302.250727 0.9850 0.9850 0.9850 0.9850 0.9850
2306.929466 0.9845 0.9840 0.9830 0.9820 0.9820
2311.608205 0.9820 0.9815 0.9810 0.9810 0.9810
2316.286944 0.9800 0.9790 0.9790 0.9790 0.9785
2320.965683 0.9780 0.9770 0.9760 0.9755 0.9750
2325.644423 0.9750 0.9750 0.9745 0.9740 0.9730
2330.323162 0.9720 0.9720 0.9720 0.9720 0.9720
2335.001901 0.9715 0.9710 0.9710 0.9710 0.9700
2339.680640 0.9691 0.9690 0.9690 0.9690 0.9690
2344.359379 0.9690 0.9690 0.9699 0.9709 0.9710
2349.038119 0.9710 0.9710 0.9710 0.9710 0.9710
2353.716858 0.9714 0.9719 0.9720 0.9720 0.9729
2358.395597 0.9739 0.9749 0.9759 0.9769 0.9779
2363.074336 0.9793 0.9808 0.9810 0.9810 0.9814
2367.753076 0.9819 0.9828 0.9838 0.9844 0.9849
2372.431815 0.9858 0.9868 0.9878 0.9888 0.9890
2377.110554 0.9890 0.9890 0.9890 0.9898 0.9908
2381.789293 0.9914 0.9919 0.9920 0.9920 0.9920
2386.468032 0.9920 0.9928 0.9938 0.9940 0.9940
2391.146772 0.9940 0.9940 0.9940 0.9940 0.9940
2395.825511 0.9940 0.9940 0.9940 0.9940 0.9940
2400.504250 0.9940 0.9940 0.9940 0.9940 0.9940
2405.182989 0.9940 0.9940 0.9940 0.9940 0.9940
2409.861728 0.9933 0.9923 0.9920 0.9920 0.9920
2414.540468 0.9920 0.9916 0.9911 0.9910 0.9910
2419.219207 0.9910 0.9910 0.9910 0.9910 0.9910
2423.897946 0.9910 0.9913 0.9918 0.9920 0.9920
2428.576685 0.9920 0.9920 0.9920 0.9920 0.9920
2433.255424 0.9920 0.9920 0.9920 0.9920 0.9920
2437.934164 0.9920 0.9920 0.9920 0.9920 0.9920
2442.612903 0.9920 0.9920 0.9920 0.9920 0.9920
2447.291642 0.9920 0.9920 0.9920 0.9920 0.9920
2451.970381 0.9920 0.9920 0.9920 0.9920 0.9920
2456.649120 0.9920 0.9920 0.9920 0.9920 0.9917
2461.327860 0.9912 0.9910 0.9910 0.9910 0.9910
2466.006599 0.9910 0.9910 0.9910 0.9910 0.9905
2470.685338 0.9895 0.9890 0.9890 0.9890 0.9890
2475.364077 0.9890 0.9890 0.9887 0.9882 0.9880
2480.042817 0.9880 0.9880 0.9880 0.9880 0.9880
2484.721556 0.9878 0.9873 0.9870 0.9870 0.9870
2489.400295 0.9870 0.9872 0.9877 0.9882 0.9887
2494.079034 0.9895 0.9905 0.9905 0.9895 0.9890
2498.757773 0.9890 0.9890 0.9890 0.9890 0.9890
2503.436513 0.9890 0.9890 0.9888 0.9883 0.9880
2508.115252 0.9880 0.9880 0.9880 0.9880 0.9880
2512.793991 0.9882 0.9887 0.9890 0.9890 0.9890
2517.472730 0.9890 0.9888 0.9883 0.9880 0.9880
2522.151469 0.9882 0.9887 0.9894 0.9904 0.9906
2526.830209 0.9896 0.9890 0.9890 0.9890 0.9890
2531.508948 0.9890 0.9890 0.9890 0.9890 0.9890
2536.187687 0.9890 0.9890 0.9890 0.9890 0.9890
2540.866426 0.9890 0.9890 0.9888 0.9883 0.9880
2545.545165 0.9880 0.9878 0.9874 0.9870 0.9870
2550.223905 0.9870 0.9870 0.9870 0.9870 0.9870
2554.902644 0.9870 0.9870 0.9870 0.9870 0.9870
2559.581383 0.9871 0.9876 0.9881 0.9886 0.9890
2564.260122 0.9890 0.9890 0.9890 0.9892 0.9902
2568.938861 0.9910 0.9910 0.9910 0.9910 0.9910
2573.617601 0.9910 0.9910 0.9910 0.9908 0.9898
2578.296340 0.9890 0.9890 0.9890 0.9890 0.9890
2582.975079 0.9890 0.9889 0.9884 0.9880 0.9880
2587.653818 0.9880 0.9880 0.9879 0.9874 0.9868
2592.332558 0.9853 0.9838 0.9823 0.9810 0.9810
2597.011297 0.9810 0.9810 0.9811 0.9816 0.9821
2601.690036 0.9831 0.9841 0.9846 0.9851 0.9861
2606.368775 0.9870 0.9870 0.9870 0.9870 0.9870
2611.047514 0.9870 0.9870 0.9870 0.9870 0.9875
2615.726254 0.9880 0.9875 0.9869 0.9859 0.9851
2620.404993 0.9866 0.9880 0.9880 0.9879 0.9864
2625.083732 0.9850 0.9850 0.9850 0.9850 0.9850
2629.762471 0.9845 0.9840 0.9840 0.9840 0.9855
2634.441210 0.9870 0.9870 0.9870 0.9870 0.9870
2639.119950 0.9870 0.9870 0.9870 0.9870 0.9870
2643.798689 0.9870 0.9860 0.9850 0.9845 0.9840
2648.477428 0.9840 0.9840 0.9840 0.9840 0.9840
2653.156167 0.9840 0.9859 0.9879 0.9880 0.9880
2657.834906 0.9875 0.9870 0.9860 0.9851 0.9850
2662.513646 0.9850 0.9845 0.9840 0.9845 0.9850
2667.192385 0.9845 0.9840 0.9840 0.9840 0.9831
2671.871124 0.9821 0.9816 0.9811 0.9801 0.9791
2676.549863 0.9785 0.9781 0.9771 0.9761 0.9760
2681.228603 0.9760 0.9760 0.9760 0.9799 0.9844
2685.907342 0.9846 0.9841 0.9840 0.9840 0.9806
2690.586081 0.9766 0.9731 0.9696 0.9690 0.9690
2695.264820 0.9728 0.9773 0.9809 0.9844 0.9858
2699.943559 0.9868 0.9870 0.9870 0.9870 0.9870
2704.622299 0.9838 0.9798 0.9687 0.9557 0.9530
2709.301038 0.9530 0.9616 0.9725 0.9777 0.9813
2713.979777 0.9840 0.9865 0.9874 0.9879 0.9880
2718.658516 0.9880 0.9876 0.9871 0.9851 0.9826
2723.337255 0.9768 0.9698 0.9610 0.9515 0.9490
2728.015995 0.9490 0.9627 0.9816 0.9870 0.9870
2732.694734 0.9863 0.9853 0.9839 0.9824 0.9816
2737.373473 0.9811 0.9708 0.9564 0.9454 0.9359
2742.052212 0.9330 0.9330 0.9486 0.9715 0.9790
2746.730951 0.9790 0.9790 0.9790 0.9787 0.9782
2751.409691 0.9773 0.9763 0.9737 0.9702 0.9664
2756.088430 0.9624 0.9610 0.9610 0.9635 0.9675
2760.767169 0.9709 0.9739 0.9747 0.9742 0.9691
2765.445908 0.9611 0.9565 0.9540 0.9524 0.9514
2770.124647 0.9522 0.9542 0.9553 0.9558 0.9596
2774.803387 0.9655 0.9692 0.9712 0.9732 0.9751
2779.482126 0.9749 0.9729 0.9703 0.9673 0.9638
2784.160865 0.9598 0.9553 0.9503 0.9475 0.9464
2788.839604 0.9466 0.9475 0.9494 0.9519 0.9554
2793.518344 0.9599 0.9628 0.9643 0.9650 0.9650
2798.197083 0.9617 0.9552 0.9520 0.9520 0.9555
2802.875822 0.9625 0.9660 0.9660 0.9660 0.9660
2807.554561 0.9660 0.9660 0.9648 0.9623 0.9605
2812.233300 0.9595 0.9571 0.9531 0.9450 0.9320
2816.912040 0.9223 0.9163 0.9123 0.9108 0.9098
2821.590779 0.9093 0.9096 0.9111 0.9129 0.9149
2826.269518 0.9180 0.9224 0.9254 0.9264 0.9295
2830.948257 0.9355 0.9425 0.9510 0.9564 0.9574
2835.626996 0.9600 0.9650 0.9694 0.9728 0.9750
2840.305736 0.9750 0.9748 0.9743 0.9736 0.9726
2844.984475 0.9720 0.9720 0.9718 0.9713 0.9706
2849.663214 0.9696 0.9667 0.9602 0.9543 0.9493
2854.341953 0.9453 0.9433 0.9415 0.9400 0.9390
2859.020692 0.9390 0.9385 0.9370 0.9310 0.9149
2863.699432 0.8981 0.8797 0.8670 0.8670 0.8784
2868.378171 0.9158 0.9430 0.9465 0.9490 0.9490
2873.056910 0.9298 0.8616 0.8089 0.7974 0.7920
2877.735649 0.8035 0.8311 0.9053 0.9610 0.9610
2882.414388 0.9235 0.7806 0.6744 0.6759 0.7116
2887.093128 0.8520 0.9598 0.9633 0.9647 0.9593
2891.771867 0.9420 0.8838 0.8215 0.7448 0.6773
2896.450606 0.6449 0.6190 0.6190 0.6472 0.7947
2901.129345 0.9120 0.9120 0.8774 0.7016 0.5590
2905.808085 0.5590 0.5676 0.6149 0.6775 0.8135
2910.486824 0.9272 0.9287 0.9123 0.7992 0.6943
2915.165563 0.6360 0.5778 0.5195 0.4679 0.4593
2919.844302 0.4520 0.4520 0.4850 0.7245 0.9190
2924.523041 0.8115 0.7039 0.5963 0.4974 0.4660
2929.201781 0.4631 0.6996 0.9135 0.9185 0.9115
2933.880520 0.7840 0.6565 0.5285 0.4174 0.5170
2938.559259 0.6094 0.6259 0.6522 0.7941 0.9267
2943.237998 0.9361 0.9367 0.8058 0.6748 0.5438
2947.916737 0.4190 0.4190 0.4284 0.6690 0.9029
2952.595477 0.9328 0.9574 0.7632 0.5724 0.5955
2957.274216 0.6167 0.5729 0.5291 0.4842 0.4432
2961.952955 0.6822 0.9197 0.8694 0.8191 0.7971
2966.631694 0.7752 0.7124 0.6492 0.5854 0.5217
2971.310433 0.6533 0.7903 0.8662 0.9399 0.9430
2975.989173 0.9430 0.8396 0.7330 0.6250 0.5169
2980.667912 0.7135 0.9247 0.9454 0.9554 0.8340
2985.346651 0.7040 0.6653 0.6335 0.6011 0.5688
2990.025390 0.5660 0.5660 0.7417 0.9354 0.9550
2994.704129 0.9550 0.9123 0.8655 0.8389 0.8145
2999.382869 0.7915 0.7685 0.6792 0.5816 0.5599
3004.061608 0.5485 0.5370 0.5255 0.5046 0.4822
3008.740347 0.4158 0.3421 0.2858 0.2325 0.2223
3013.419086 0.2203 0.2991 0.3917 0.4835 0.5751
3018.097826 0.6267 0.6705 0.7140 0.7573 0.7695
3022.776565 0.7750 0.8421 0.9233 0.9366 0.9336
3027.455304 0.8579 0.7637 0.7440 0.7440 0.8232
3032.134043 0.9244 0.9216 0.8922 0.8738 0.8584
3036.812782 0.8115 0.7557 0.7418 0.7404 0.8249
3041.491522 0.9359 0.9630 0.9630 0.8449 0.6870
3046.170261 0.6460 0.6460 0.6482 0.6512 0.6567
3050.849000 0.6633 0.6808 0.7022 0.6742 0.6279
3055.527739 0.6139 0.6124 0.5957 0.5727 0.5491
3060.206478 0.5252 0.6076 0.7361 0.8244 0.8946
3064.885218 0.8104 0.6540 0.5845 0.5572 0.5292
3069.563957 0.5011 0.5406 0.6124 0.6834 0.7541
3074.242696 0.8239 0.8931 0.9170 0.9170 0.8365
3078.921435 0.7120 0.6447 0.6099 0.5863 0.5694
3083.600174 0.5521 0.5347 0.5075 0.4741 0.4610
3088.278914 0.4610 0.4938 0.5465 0.5768 0.5927
3092.957653 0.6147 0.6406 0.6941 0.7663 0.8344
3097.636392 0.8997 0.8466 0.7081 0.6319 0.6020
3102.315131 0.5716 0.5407 0.6388 0.8395 0.9109
3106.993870 0.8762 0.8406 0.8042 0.7475 0.6742
3111.672610 0.6285 0.6056 0.5824 0.5590 0.6554
3116.351349 0.8581 0.9550 0.9550 0.8615 0.6798
3121.030088 0.5897 0.5893 0.6168 0.6726 0.7647
3125.708827 0.8946 0.9136 0.8234 0.7449 0.6782
3130.387567 0.6440 0.6440 0.7191 0.8755 0.9596
3135.066306 0.9631 0.9664 0.9694 0.9271 0.8310
3139.745045 0.7827 0.7931 0.8378 0.9260 0.9767
3144.423784 0.9782 0.9418 0.8581 0.7927 0.7509
3149.102523 0.7270 0.7270 0.7799 0.9054 0.9809
3153.781263 0.9853 0.9492 0.8536 0.7960 0.7960
3158.460002 0.8325 0.9261 0.9850 0.9874 0.9890
3163.138741 0.9890 0.9886 0.9876 0.9673 0.9156
3167.817480 0.8824 0.8810 0.8878 0.9092 0.9306
3172.496219 0.9520 0.9676 0.9720 0.9755 0.9770
3177.174959 0.9782 0.9787 0.9793 0.9803 0.9815
3181.853698 0.9830 0.9840 0.9840 0.9840 0.9840
3186.532437 0.9845 0.9860 0.9873 0.9883 0.9890
3191.211176 0.9890 0.9893 0.9903 0.9910 0.9910
3195.889915 0.9911 0.9916 0.9920 0.9920 0.9920
3200.568655 0.9920 0.9924 0.9939 0.9950 0.9950
3205.247394 0.9953 0.9962 0.9970 0.9970 0.9970
3209.926133 0.9970 0.9970 0.9970 0.9970 0.9970
3214.604872 0.9970 0.9970 0.9970 0.9970 0.9970
3219.283611 0.9970 0.9971 0.9976 0.9980 0.9980
3223.962351 0.9980 0.9980 0.9980 0.9980 0.9980
3228.641090 0.9980 0.9980 0.9980 0.9980 0.9980
3233.319829 0.9980 0.9980 0.9980 0.9980 0.9980
3237.998568 0.9980 0.9980 0.9980 0.9980 0.9980
3242.677308 0.9980 0.9980 0.9980 0.9980 0.9980
3247.356047 0.9980 0.9980 0.9980 0.9980 0.9980
3252.034786 0.9980 0.9980 0.9980 0.9980 0.9980
3256.713525 0.9980 0.9980 0.9980 0.9980 0.9980
3261.392264 0.9980 0.9980 0.9980 0.9980 0.9980
3266.071004 0.9980 0.9980 0.9980 0.9980 0.9980
3270.749743 0.9980 0.9980 0.9980 0.9980 0.9980
3275.428482 0.9980 0.9980 0.9980 0.9980 0.9980
3280.107221 0.9980 0.9980 0.9980 0.9980 0.9980
3284.785960 0.9980 0.9980 0.9980 0.9980 0.9980
3289.464700 0.9980 0.9980 0.9980 0.9980 0.9980
3294.143439 0.9980 0.9980 0.9980 0.9980 0.9980
3298.822178 0.9980 0.9980 0.9980 0.9980 0.9980
3303.500917 0.9980 0.9980 0.9980 0.9980 0.9980
3308.179656 0.9980 0.9980 0.9980 0.9980 0.9980
3312.858396 0.9980 0.9980 0.9980 0.9980 0.9980
3317.537135 0.9980 0.9980 0.9980 0.9980 0.9980
3322.215874 0.9980 0.9980 0.9980 0.9980 0.9980
3326.894613 0.9980 0.9980 0.9980 0.9980 0.9980
3331.573353 0.9980 0.9980 0.9980 0.9980 0.9980
3336.252092 0.9980 0.9980 0.9980 0.9980 0.9980
3340.930831 0.9980 0.9980 0.9980 0.9980 0.9988
3345.609570 0.9998 1.0000 1.0000 1.0000 1.0000
3350.288309 1.0000 1.0000 1.0000 1.0000 1.0000
3354.967049 1.0000 1.0000 1.0000 1.0000 1.0000
3359.645788 1.0000 1.0000 1.0000 1.0000 1.0000
3364.324527 1.0000 1.0000 1.0000 1.0000 1.0000
3369.003266 1.0000 1.0000 1.0000 1.0000 0.9993
3373.682005 0.9983 0.9980 0.9980 0.9980 0.9980
3378.360745 0.9980 0.9980 0.9980 0.9980 0.9980
3383.039484 0.9980 0.9977 0.9972 0.9970 0.9970
3387.718223 0.9970 0.9970 0.9963 0.9953 0.9950
3392.396962 0.9950 0.9950 0.9950 0.9950 0.9950
3397.075701 0.9950 0.9950 0.9950 0.9950 0.9956
3401.754441 0.9966 0.9970 0.9970 0.9970 0.9970
3406.433180 0.9973 0.9978 0.9980 0.9980 0.9977
3411.111919 0.9972 0.9973 0.9978 0.9980 0.9980
3415.790658 0.9980 0.9980 0.9980 0.9980 0.9980
3420.469397 0.9980 0.9980 0.9980 0.9980 0.9980
3425.148137 0.9980 0.9980 0.9980 0.9980 0.9980
3429.826876 0.9980 0.9980 0.9980 0.9980 0.9980
3434.505615 0.9980 0.9980 0.9980 0.9980 0.9980
3439.184354 0.9980 0.9980 0.9980 0.9980 0.9980
3443.863094 0.9980 0.9980 0.9980 0.9980 0.9980
3448.541833 0.9980 0.9980 0.9980 0.9980 0.9980
3453.220572 0.9980 0.9980 0.9980 0.9980 0.9980
3457.899311 0.9980 0.9985 0.9995 1.0000 1.0000
3462.578050 1.0000 1.0000 1.0000 1.0000 1.0000
3467.256790 1.0000 1.0000 1.0000 1.0000 1.0000
3471.935529 1.0000 1.0000 1.0000 1.0000 1.0002
3476.614268 1.0007 1.0010 1.0010 1.0010 1.0010
3481.293007 1.0010 1.0010 1.0010 1.0010 1.0010
3485.971746 1.0010 1.0010 1.0010 1.0010 1.0010
3490.650486 1.0010 1.0010 1.0010 1.0010 1.0010
3495.329225 1.0010 1.0010 1.0010 1.0010 1.0010
3500.007964 1.0010 1.0010 1.0010 1.0010 1.0010
3504.686703 1.0010 1.0008 1.0003 1.0000 1.0000
3509.365442 1.0000 1.0000 1.0000 1.0000 1.0000
3514.044182 1.0000 1.0000 1.0000 1.0000 1.0000
3518.722921 1.0000 1.0000 1.0000 1.0000 1.0000
3523.401660 1.0000 1.0000 1.0000 1.0000 1.0000
3528.080399 1.0000 1.0000 1.0000 1.0000 1.0000
3532.759138 1.0000 1.0000 1.0000 1.0000 1.0000
3537.437878 1.0000 1.0000 1.0000 1.0000 1.0000
3542.116617 1.0000 1.0000 1.0000 1.0000 1.0000
3546.795356 1.0000 1.0000 1.0000 1.0000 0.9998
3551.474095 0.9988 0.9980 0.9980 0.9980 0.9980
3556.152835 0.9980 0.9980 0.9980 0.9980 0.9980
3560.831574 0.9980 0.9980 0.9980 0.9980 0.9980
3565.510313 0.9980 0.9980 0.9980 0.9980 0.9980
3570.189052 0.9980 0.9980 0.9980 0.9980 0.9980
3574.867791 0.9980 0.9980 0.9980 0.9980 0.9980
3579.546531 0.9980 0.9980 0.9980 0.9980 0.9980
3584.225270 0.9980 0.9980 0.9980 0.9980 0.9980
3588.904009 0.9980 0.9980 0.9980 0.9980 0.9980
3593.582748 0.9980 0.9980 0.9980 0.9980 0.9980
3598.261487 0.9980 0.9980 0.9980 0.9980 0.9980
3602.940227 0.9980 0.9980 0.9980 0.9980 0.9980
3607.618966 0.9980 0.9980 0.9980 0.9980 0.9980
3612.297705 0.9980 0.9980 0.9980 0.9980 0.9980
3616.976444 0.9980 0.9980 0.9980 0.9980 0.9980
3621.655183 0.9980 0.9980 0.9980 0.9980 0.9980
3626.333923 0.9980 0.9980 0.9980 0.9980 0.9980
3631.012662 0.9980 0.9989 0.9999 0.9991 0.9981
3635.691401 0.9980 0.9980 0.9980 0.9980 0.9980
3640.370140 0.9980 0.9989 0.9999 1.0000 1.0000
3645.048879 1.0000 1.0000 1.0000 1.0000 0.9991
3649.727619 0.9981 0.9980 0.9980 0.9980 0.9980
3654.406358 0.9980 0.9980 0.9980 0.9980 0.9980
3659.085097 0.9980 0.9980 0.9980 0.9980 0.9980
3663.763836 0.9980 0.9980 0.9980 0.9980 0.9980
3668.442576 0.9980 0.9976 0.9971 0.9962 0.9952
3673.121315 0.9950 0.9950 0.9950 0.9950 0.9950
3677.800054 0.9950 0.9958 0.9968 0.9970 0.9970
3682.478793 0.9974 0.9979 0.9980 0.9980 0.9980
3687.157532 0.9980 0.9980 0.9980 0.9988 0.9997
3691.836272 1.0000 1.0000 0.9993 0.9983 0.9980
3696.515011 0.9980 0.9980 0.9980 0.9980 0.9980
3701.193750 0.9980 0.9980 0.9987 0.9997 1.0000
3705.872489 1.0000 1.0003 1.0009 1.0010 1.0010
3710.551228 1.0007 1.0002 0.9993 0.9983 0.9980
3715.229968 0.9980 0.9980 0.9980 0.9980 0.9980
3719.908707 0.9986 0.9996 1.0000 1.0000 1.0000
3724.587446 1.0000 0.9994 0.9984 0.9980 0.9980
3729.266185 0.9980 0.9980 0.9986 0.9996 1.0000
3733.944924 1.0000 1.0000 1.0000 1.0000 1.0000
3738.623664 1.0000 1.0000 0.9994 0.9984 0.9986
3743.302403 0.9996 1.0003 1.0008 1.0010 1.0010
3747.981142 1.0010 1.0010 1.0013 1.0018 1.0020
3752.659881 1.0020 1.0020 1.0020 1.0020 1.0020
3757.338620 1.0020 1.0020 1.0020 1.0020 1.0020
3762.017360 1.0020 1.0020 1.0020 1.0020 1.0020
3766.696099 1.0020 1.0020 1.0020 1.0020 1.0017
3771.374838 1.0013 1.0010 1.0010 1.0010 1.0010
3776.053577 1.0010 1.0010 1.0010 1.0010 1.0010
3780.732317 1.0010 1.0010 1.0010 1.0010 1.0010
3785.411056 1.0008 1.0003 1.0000 1.0000 1.0000
3790.089795 1.0000 0.9996 0.9986 0.9980 0.9980
3794.768534 0.9978 0.9973 0.9970 0.9970 0.9970
3799.447273 0.9970 0.9970 0.9970
##END=
