##TITLE=Pyridine
##JCAMP-DX=4.24
##DATA TYPE=INFRARED SPECTRUM
##CLASS=COBLENTZ
##ORIGIN=DOW CHEMICAL COMPANY
##OWNER=Copyright (C) 1987 by the Coblentz Society
Collection (C) 2018 copyright by the U.S. Secretary of Commerce
on behalf of the United States of America. All rights reserved.
##DATE=1964
##CAS REGISTRY NO=110-86-1
##MOLFORM=C5 H5 N
##SOURCE REFERENCE=COBLENTZ NO. 8815
##$NIST SOURCE=COBLENTZ
##$NIST IMAGE=cob8815
##SPECTROMETER/DATA SYSTEM=DOW KBr FOREPRISM-GRATING
##INSTRUMENT PARAMETERS=GRATING CHANGED AT 5.0, 7.5, 15.0 MICRON
##STATE=GAS (15 mmHg, N2 ADDED, TOTAL PRESSURE 600 mmHg)
##PATH LENGTH=5 CM
##SAMPLING PROCEDURE=TRANSMISSION
##RESOLUTION=2
##DATA PROCESSING=DIGITIZED BY COBLENTZ SOCIETY (BATCH II) FROM HARD COPY
##XUNITS=1/CM
##YUNITS=TRANSMITTANCE
##XFACTOR=1.0
##YFACTOR=1
##FIRSTX=460
##LASTX=3796
##FIRSTY=0.8742
##MAXX=3796
##MINX=460
##MAXY=0.8976
##MINY=0.1392
##NPOINTS=3337
##XYDATA=(X++(Y..Y))
460.000000 0.8742 0.8751 0.8762 0.8767 0.8772
465.000000 0.8777 0.8781 0.8786 0.8791 0.8795
470.000000 0.8799 0.8803 0.8806 0.8810 0.8814
475.000000 0.8817 0.8821 0.8825 0.8828 0.8831
480.000000 0.8832 0.8833 0.8834 0.8835 0.8836
485.000000 0.8837 0.8838 0.8839 0.8840 0.8842
490.000000 0.8843 0.8844 0.8845 0.8842 0.8840
495.000000 0.8837 0.8834 0.8832 0.8829 0.8826
500.000000 0.8824 0.8821 0.8818 0.8809 0.8813
505.000000 0.8810 0.8808 0.8805 0.8802 0.8800
510.000000 0.8797 0.8794 0.8792 0.8789 0.8786
515.000000 0.8784 0.8781 0.8778 0.8775 0.8772
520.000000 0.8769 0.8766 0.8762 0.8759 0.8756
525.000000 0.8752 0.8749 0.8746 0.8743 0.8739
530.000000 0.8736 0.8733 0.8730 0.8726 0.8723
535.000000 0.8720 0.8718 0.8716 0.8715 0.8714
540.000000 0.8712 0.8711 0.8709 0.8708 0.8707
545.000000 0.8705 0.8704 0.8703 0.8707 0.8710
550.000000 0.8714 0.8718 0.8721 0.8725 0.8728
555.000000 0.8732 0.8736 0.8739 0.8743 0.8746
560.000000 0.8750 0.8753 0.8754 0.8755 0.8756
565.000000 0.8757 0.8758 0.8760 0.8761 0.8762
570.000000 0.8763 0.8760 0.8754 0.8748 0.8742
575.000000 0.8736 0.8725 0.8710 0.8695 0.8680
580.000000 0.8664 0.8649 0.8631 0.8610 0.8590
585.000000 0.8569 0.8549 0.8528 0.8508 0.8487
590.000000 0.8467 0.8449 0.8430 0.8413 0.8413
595.000000 0.8413 0.8413 0.8417 0.8426 0.8435
600.000000 0.8434 0.8428 0.8407 0.8365 0.8359
605.000000 0.8354 0.8350 0.8339 0.8347 0.8361
610.000000 0.8376 0.8402 0.8440 0.8479 0.8524
615.000000 0.8574 0.8624 0.8652 0.8679 0.8707
620.000000 0.8734 0.8759 0.8774 0.8788 0.8803
625.000000 0.8817 0.8830 0.8839 0.8848 0.8857
630.000000 0.8858 0.8859 0.8859 0.8860 0.8861
635.000000 0.8861 0.8869 0.8859 0.8858 0.8856
640.000000 0.8847 0.8839 0.8830 0.8821 0.8813
645.000000 0.8804 0.8795 0.8784 0.8773 0.8762
650.000000 0.8751 0.8741 0.8730 0.8719 0.8706
655.000000 0.8692 0.8678 0.8661 0.8640 0.8619
660.000000 0.8599 0.8578 0.8553 0.8523 0.8493
665.000000 0.8463 0.8433 0.8403 0.8373 0.8343
670.000000 0.8312 0.8240 0.8167 0.8090 0.8008
675.000000 0.7927 0.7838 0.7720 0.7602 0.7335
680.000000 0.7019 0.6720 0.6352 0.6263 0.6189
685.000000 0.6069 0.5992 0.5954 0.5950 0.5967
690.000000 0.6004 0.6076 0.6259 0.6382 0.6580
695.000000 0.6778 0.6976 0.7098 0.7117 0.5591
700.000000 0.3156 0.1392 0.3156 0.4615 0.6074
705.000000 0.7465 0.7423 0.6021 0.5156 0.5392
710.000000 0.5726 0.5864 0.5847 0.5816 0.5802
715.000000 0.5802 0.5818 0.5917 0.6021 0.6125
720.000000 0.6229 0.6334 0.6438 0.6542 0.6646
725.000000 0.6751 0.6855 0.6959 0.7063 0.7167
730.000000 0.7272 0.7376 0.7480 0.7584 0.7689
735.000000 0.7793 0.7897 0.8001 0.8105 0.8210
740.000000 0.8314 0.8476 0.8465 0.8193 0.5807
745.000000 0.5080 0.5098 0.6669 0.7515 0.8362
750.000000 0.8448 0.8400 0.8445 0.8215 0.8136
755.000000 0.8118 0.8107 0.8108 0.8117 0.8129
760.000000 0.8147 0.8170 0.8204 0.8240 0.8276
765.000000 0.8312 0.8347 0.8381 0.8415 0.8450
770.000000 0.8487 0.8524 0.8557 0.8587 0.8618
775.000000 0.8649 0.8679 0.8704 0.8729 0.8754
780.000000 0.8770 0.8783 0.8796 0.8808 0.8814
785.000000 0.8821 0.8827 0.8834 0.8839 0.8839
790.000000 0.8840 0.8840 0.8827 0.8842 0.8839
795.000000 0.8835 0.8831 0.8827 0.8823 0.8819
800.000000 0.8815 0.8811 0.8807 0.8802 0.8795
805.000000 0.8788 0.8781 0.8774 0.8767 0.8753
810.000000 0.8738 0.8723 0.8709 0.8686 0.8641
815.000000 0.8596 0.8543 0.8490 0.8423 0.8355
820.000000 0.8299 0.8244 0.8185 0.8124 0.8057
825.000000 0.7949 0.7858 0.7782 0.7723 0.7695
830.000000 0.7692 0.7702 0.7723 0.7760 0.7797
835.000000 0.7842 0.7886 0.7927 0.7972 0.8022
840.000000 0.8074 0.8117 0.8159 0.8179 0.8195
845.000000 0.8211 0.8227 0.8243 0.8257 0.8272
850.000000 0.8286 0.8300 0.8315 0.8326 0.8336
855.000000 0.8346 0.8356 0.8365 0.8374 0.8381
860.000000 0.8388 0.8395 0.8402 0.8409 0.8416
865.000000 0.8423 0.8428 0.8432 0.8436 0.8440
870.000000 0.8444 0.8448 0.8452 0.8456 0.8460
875.000000 0.8464 0.8468 0.8471 0.8474 0.8476
880.000000 0.8478 0.8481 0.8483 0.8486 0.8488
885.000000 0.8490 0.8493 0.8501 0.8508 0.8515
890.000000 0.8522 0.8533 0.8549 0.8566 0.8582
895.000000 0.8599 0.8620 0.8641 0.8663 0.8673
900.000000 0.8684 0.8694 0.8705 0.8716 0.8723
905.000000 0.8730 0.8736 0.8743 0.8750 0.8757
910.000000 0.8760 0.8761 0.8762 0.8763 0.8765
915.000000 0.8766 0.8766 0.8765 0.8764 0.8764
920.000000 0.8763 0.8763 0.8766 0.8769 0.8772
925.000000 0.8775 0.8778 0.8781 0.8785 0.8789
930.000000 0.8793 0.8796 0.8800 0.8803 0.8806
935.000000 0.8809 0.8812 0.8815 0.8818 0.8821
940.000000 0.8824 0.8827 0.8830 0.8833 0.8836
945.000000 0.8839 0.8841 0.8844 0.8847 0.8849
950.000000 0.8854 0.8855 0.8857 0.8858 0.8859
955.000000 0.8859 0.8860 0.8860 0.8861 0.8861
960.000000 0.8858 0.8854 0.8849 0.8838 0.8826
965.000000 0.8815 0.8804 0.8793 0.8776 0.8751
970.000000 0.8727 0.8701 0.8676 0.8651 0.8625
975.000000 0.8598 0.8568 0.8538 0.8507 0.8472
980.000000 0.8437 0.8432 0.8431 0.8433 0.8443
985.000000 0.8452 0.8458 0.8460 0.8450 0.8427
990.000000 0.8395 0.8357 0.8351 0.8419 0.8454
995.000000 0.8428 0.8403 0.8382 0.8368 0.8357
1000.000000 0.8355 0.8355 0.8357 0.8365 0.8380
1005.000000 0.8398 0.8429 0.8459 0.8475 0.8476
1010.000000 0.8463 0.8434 0.8388 0.8312 0.8251
1015.000000 0.8179 0.8100 0.8030 0.7965 0.7902
1020.000000 0.7845 0.7793 0.7765 0.7757 0.7754
1025.000000 0.7756 0.7760 0.7767 0.7776 0.7764
1030.000000 0.7527 0.7409 0.7551 0.7711 0.7661
1035.000000 0.7581 0.7491 0.7418 0.7404 0.7403
1040.000000 0.7406 0.7407 0.7437 0.7489 0.7540
1045.000000 0.7591 0.7642 0.7692 0.7737 0.7765
1050.000000 0.7806 0.7786 0.7791 0.7792 0.7790
1055.000000 0.7790 0.7788 0.7782 0.7765 0.7746
1060.000000 0.7730 0.7713 0.7702 0.7695 0.7681
1065.000000 0.7699 0.7708 0.7718 0.7730 0.7742
1070.000000 0.7758 0.7777 0.7796 0.7814 0.7833
1075.000000 0.7848 0.7851 0.7854 0.7855 0.7855
1080.000000 0.7877 0.7901 0.7929 0.7956 0.7985
1085.000000 0.8015 0.8045 0.8067 0.8087 0.8108
1090.000000 0.8129 0.8149 0.8168 0.8183 0.8197
1095.000000 0.8211 0.8226 0.8237 0.8245 0.8253
1100.000000 0.8260 0.8268 0.8276 0.8283 0.8289
1105.000000 0.8293 0.8297 0.8301 0.8304 0.8308
1110.000000 0.8312 0.8316 0.8318 0.8326 0.8316
1115.000000 0.8314 0.8313 0.8312 0.8310 0.8305
1120.000000 0.8300 0.8295 0.8289 0.8276 0.8262
1125.000000 0.8248 0.8234 0.8216 0.8197 0.8178
1130.000000 0.8160 0.8141 0.8124 0.8124 0.8124
1135.000000 0.8124 0.8127 0.8129 0.8131 0.8132
1140.000000 0.8133 0.8134 0.8134 0.8130 0.8119
1145.000000 0.8123 0.8122 0.8120 0.8118 0.8117
1150.000000 0.8115 0.8115 0.8116 0.8145 0.8175
1155.000000 0.8205 0.8255 0.8315 0.8364 0.8408
1160.000000 0.8437 0.8465 0.8493 0.8513 0.8534
1165.000000 0.8553 0.8566 0.8580 0.8594 0.8607
1170.000000 0.8614 0.8622 0.8629 0.8636 0.8641
1175.000000 0.8647 0.8650 0.8652 0.8656 0.8661
1180.000000 0.8667 0.8676 0.8690 0.8715 0.8718
1185.000000 0.8723 0.8725 0.8727 0.8728 0.8730
1190.000000 0.8728 0.8726 0.8724 0.8722 0.8716
1195.000000 0.8708 0.8700 0.8692 0.8681 0.8661
1200.000000 0.8641 0.8621 0.8602 0.8584 0.8569
1205.000000 0.8558 0.8547 0.8537 0.8532 0.8533
1210.000000 0.8535 0.8540 0.8547 0.8531 0.8554
1215.000000 0.8554 0.8554 0.8563 0.8575 0.8586
1220.000000 0.8598 0.8595 0.8589 0.8583 0.8576
1225.000000 0.8572 0.8570 0.8574 0.8590 0.8607
1230.000000 0.8630 0.8657 0.8684 0.8708 0.8732
1235.000000 0.8748 0.8760 0.8771 0.8776 0.8781
1240.000000 0.8817 0.8788 0.8784 0.8779 0.8773
1245.000000 0.8767 0.8760 0.8754 0.8748 0.8741
1250.000000 0.8735 0.8728 0.8720 0.8713 0.8705
1255.000000 0.8698 0.8690 0.8683 0.8676 0.8675
1260.000000 0.8661 0.8673 0.8672 0.8684 0.8698
1265.000000 0.8711 0.8725 0.8739 0.8752 0.8762
1270.000000 0.8770 0.8779 0.8787 0.8795 0.8803
1275.000000 0.8807 0.8806 0.8806 0.8806 0.8805
1280.000000 0.8805 0.8804 0.8804 0.8803 0.8802
1285.000000 0.8801 0.8800 0.8799 0.8798 0.8796
1290.000000 0.8795 0.8794 0.8793 0.8792 0.8790
1295.000000 0.8789 0.8788 0.8787 0.8786 0.8785
1300.000000 0.8784 0.8783 0.8781 0.8780 0.8779
1305.000000 0.8778 0.8777 0.8775 0.8774 0.8773
1310.000000 0.8772 0.8771 0.8769 0.8768 0.8767
1315.000000 0.8766 0.8765 0.8764 0.8763 0.8762
1320.000000 0.8761 0.8761 0.8760 0.8759 0.8758
1325.000000 0.8757 0.8756 0.8755 0.8754 0.8753
1330.000000 0.8752 0.8751 0.8750 0.8748 0.8746
1335.000000 0.8744 0.8743 0.8741 0.8739 0.8736
1340.000000 0.8730 0.8723 0.8717 0.8705 0.8691
1345.000000 0.8678 0.8664 0.8648 0.8629 0.8611
1350.000000 0.8592 0.8574 0.8556 0.8540 0.8524
1355.000000 0.8508 0.8502 0.8499 0.8496 0.8493
1360.000000 0.8497 0.8501 0.8469 0.8512 0.8521
1365.000000 0.8530 0.8539 0.8550 0.8561 0.8576
1370.000000 0.8594 0.8611 0.8629 0.8650 0.8672
1375.000000 0.8693 0.8715 0.8744 0.8773 0.8802
1380.000000 0.8831 0.8874 0.8924 0.8955 0.8961
1385.000000 0.8976 0.8945 0.8924 0.8888 0.8841
1390.000000 0.8797 0.8762 0.8744 0.8734 0.8729
1395.000000 0.8726 0.8724 0.8725 0.8726 0.8727
1400.000000 0.8728 0.8729 0.8729 0.8720 0.8731
1405.000000 0.8730 0.8730 0.8729 0.8728 0.8726
1410.000000 0.8722 0.8717 0.8713 0.8708 0.8688
1415.000000 0.8662 0.8629 0.8595 0.8552 0.8502
1420.000000 0.8440 0.8352 0.8188 0.8021 0.7855
1425.000000 0.7688 0.7522 0.7355 0.7189 0.7022
1430.000000 0.6856 0.6689 0.6523 0.6340 0.6310
1435.000000 0.6294 0.6306 0.6306 0.6307 0.6310
1440.000000 0.6314 0.6438 0.6681 0.6895 0.6903
1445.000000 0.6701 0.6434 0.6316 0.6303 0.6289
1450.000000 0.6281 0.6293 0.6359 0.6417 0.6476
1455.000000 0.6538 0.6616 0.6750 0.7286 0.7532
1460.000000 0.7744 0.7961 0.8296 0.8397 0.8433
1465.000000 0.8454 0.8470 0.8481 0.8485 0.8486
1470.000000 0.8487 0.8486 0.8484 0.8482 0.8480
1475.000000 0.8479 0.8478 0.8477 0.8476 0.8475
1480.000000 0.8473 0.8472 0.8470 0.8469 0.8468
1485.000000 0.8469 0.8470 0.8472 0.8475 0.8479
1490.000000 0.8482 0.8486 0.8494 0.8504 0.8513
1495.000000 0.8525 0.8540 0.8558 0.8584 0.8609
1500.000000 0.8632 0.8654 0.8676 0.8698 0.8720
1505.000000 0.8743 0.8762 0.8779 0.8791 0.8796
1510.000000 0.8802 0.8807 0.8812 0.8814 0.8816
1515.000000 0.8817 0.8818 0.8815 0.8812 0.8809
1520.000000 0.8807 0.8803 0.8800 0.8797 0.8794
1525.000000 0.8790 0.8787 0.8784 0.8781 0.8779
1530.000000 0.8778 0.8777 0.8776 0.8776 0.8778
1535.000000 0.8780 0.8782 0.8785 0.8789 0.8793
1540.000000 0.8794 0.8794 0.8794 0.8792 0.8790
1545.000000 0.8788 0.8785 0.8779 0.8772 0.8766
1550.000000 0.8757 0.8746 0.8736 0.8725 0.8708
1555.000000 0.8690 0.8673 0.8655 0.8627 0.8595
1560.000000 0.8560 0.8510 0.8461 0.8397 0.8326
1565.000000 0.8250 0.8169 0.8028 0.7833 0.7636
1570.000000 0.7438 0.7241 0.7044 0.6845 0.6699
1575.000000 0.6549 0.6459 0.6425 0.6423 0.6417
1580.000000 0.6436 0.6552 0.6709 0.6714 0.6424
1585.000000 0.6019 0.5778 0.5748 0.5537 0.5273
1590.000000 0.5267 0.5351 0.5753 0.6155 0.6557
1595.000000 0.7257 0.7305 0.7332 0.7354 0.7372
1600.000000 0.7397 0.7429 0.7754 0.7796 0.7820
1605.000000 0.7844 0.7868 0.7892 0.7920 0.7952
1610.000000 0.7990 0.8042 0.8094 0.8211 0.8307
1615.000000 0.8383 0.8432 0.8479 0.8506 0.8533
1620.000000 0.8550 0.8557 0.8564 0.8565 0.8565
1625.000000 0.8565 0.8564 0.8563 0.8561 0.8559
1630.000000 0.8558 0.8558 0.8559 0.8560 0.8560
1635.000000 0.8561 0.8565 0.8568 0.8571 0.8577
1640.000000 0.8584 0.8591 0.8598 0.8607 0.8616
1645.000000 0.8626 0.8636 0.8645 0.8658 0.8670
1650.000000 0.8682 0.8690 0.8694 0.8698 0.8702
1655.000000 0.8705 0.8707 0.8707 0.8707 0.8707
1660.000000 0.8707 0.8707 0.8706 0.8706 0.8705
1665.000000 0.8704 0.8704 0.8703 0.8703 0.8703
1670.000000 0.8703 0.8703 0.8703 0.8703 0.8703
1675.000000 0.8703 0.8703 0.8702 0.8702 0.8701
1680.000000 0.8700 0.8698 0.8697 0.8696 0.8695
1685.000000 0.8694 0.8693 0.8692 0.8690 0.8691
1690.000000 0.8691 0.8692 0.8692 0.8692 0.8693
1695.000000 0.8693 0.8694 0.8694 0.8695 0.8695
1700.000000 0.8696 0.8696 0.8696 0.8697 0.8697
1705.000000 0.8699 0.8700 0.8702 0.8703 0.8705
1710.000000 0.8706 0.8708 0.8709 0.8711 0.8712
1715.000000 0.8714 0.8715 0.8716 0.8717 0.8717
1720.000000 0.8717 0.8718 0.8718 0.8719 0.8719
1725.000000 0.8719 0.8719 0.8717 0.8716 0.8714
1730.000000 0.8713 0.8712 0.8712 0.8712 0.8713
1735.000000 0.8713 0.8713 0.8714 0.8714 0.8714
1740.000000 0.8715 0.8715 0.8718 0.8720 0.8723
1745.000000 0.8725 0.8727 0.8730 0.8732 0.8735
1750.000000 0.8737 0.8740 0.8743 0.8747 0.8750
1755.000000 0.8753 0.8757 0.8760 0.8763 0.8767
1760.000000 0.8770 0.8773 0.8776 0.8779 0.8782
1765.000000 0.8784 0.8787 0.8790 0.8792 0.8795
1770.000000 0.8796 0.8796 0.8797 0.8798 0.8798
1775.000000 0.8799 0.8800 0.8800 0.8801 0.8802
1780.000000 0.8802 0.8802 0.8801 0.8801 0.8800
1785.000000 0.8800 0.8800 0.8799 0.8799 0.8798
1790.000000 0.8798 0.8797 0.8796 0.8795 0.8794
1795.000000 0.8793 0.8792 0.8791 0.8790 0.8790
1800.000000 0.8789 0.8788 0.8787 0.8786 0.8785
1805.000000 0.8784 0.8783 0.8782 0.8781 0.8780
1810.000000 0.8779 0.8778 0.8777 0.8777 0.8776
1815.000000 0.8775 0.8774 0.8773 0.8772 0.8771
1820.000000 0.8771 0.8770 0.8769 0.8768 0.8767
1825.000000 0.8766 0.8766 0.8763 0.8758 0.8753
1830.000000 0.8748 0.8743 0.8738 0.8733 0.8727
1835.000000 0.8722 0.8715 0.8708 0.8700 0.8693
1840.000000 0.8686 0.8679 0.8672 0.8665 0.8658
1845.000000 0.8651 0.8644 0.8637 0.8630 0.8623
1850.000000 0.8616 0.8609 0.8602 0.8599 0.8596
1855.000000 0.8593 0.8590 0.8587 0.8624 0.8589
1860.000000 0.8592 0.8596 0.8601 0.8606 0.8611
1865.000000 0.8616 0.8621 0.8625 0.8633 0.8641
1870.000000 0.8650 0.8659 0.8667 0.8676 0.8685
1875.000000 0.8693 0.8702 0.8711 0.8719 0.8728
1880.000000 0.8733 0.8739 0.8744 0.8750 0.8750
1885.000000 0.8749 0.8748 0.8746 0.8739 0.8732
1890.000000 0.8726 0.8719 0.8713 0.8705 0.8693
1895.000000 0.8681 0.8669 0.8657 0.8645 0.8632
1900.000000 0.8618 0.8604 0.8591 0.8577 0.8564
1905.000000 0.8552 0.8541 0.8530 0.8519 0.8516
1910.000000 0.8516 0.8515 0.8515 0.8514 0.8514
1915.000000 0.8517 0.8513 0.8516 0.8518 0.8520
1920.000000 0.8523 0.8525 0.8528 0.8530 0.8537
1925.000000 0.8553 0.8568 0.8583 0.8597 0.8611
1930.000000 0.8626 0.8640 0.8654 0.8667 0.8681
1935.000000 0.8694 0.8702 0.8709 0.8716 0.8723
1940.000000 0.8730 0.8734 0.8739 0.8744 0.8748
1945.000000 0.8752 0.8756 0.8759 0.8763 0.8766
1950.000000 0.8769 0.8770 0.8769 0.8768 0.8767
1955.000000 0.8761 0.8744 0.8708 0.8671 0.8650
1960.000000 0.8628 0.8616 0.8608 0.8603 0.8601
1965.000000 0.8600 0.8601 0.8603 0.8607 0.8610
1970.000000 0.8614 0.8630 0.8621 0.8626 0.8631
1975.000000 0.8637 0.8642 0.8648 0.8653 0.8658
1980.000000 0.8662 0.8667 0.8673 0.8677 0.8682
1985.000000 0.8686 0.8691 0.8695 0.8700 0.8704
1990.000000 0.8709 0.8713 0.8718 0.8722 0.8726
1995.000000 0.8731 0.8735 0.8740 0.8746 0.8751
2000.000000 0.8756 0.8761 0.8767 0.8768 0.8769
2005.000000 0.8770 0.8771 0.8771 0.8772 0.8773
2010.000000 0.8774 0.8774 0.8775 0.8776 0.8777
2015.000000 0.8777 0.8778 0.8779 0.8780 0.8781
2020.000000 0.8782 0.8782 0.8783 0.8783 0.8783
2025.000000 0.8783 0.8783 0.8783 0.8783 0.8783
2030.000000 0.8783 0.8783 0.8783 0.8783 0.8784
2035.000000 0.8784 0.8785 0.8785 0.8786 0.8786
2040.000000 0.8787 0.8788 0.8789 0.8789 0.8790
2045.000000 0.8790 0.8791 0.8791 0.8791 0.8791
2050.000000 0.8791 0.8791 0.8792 0.8792 0.8792
2055.000000 0.8792 0.8793 0.8793 0.8793 0.8793
2060.000000 0.8793 0.8793 0.8794 0.8794 0.8794
2065.000000 0.8793 0.8793 0.8792 0.8792 0.8791
2070.000000 0.8791 0.8790 0.8790 0.8789 0.8789
2075.000000 0.8788 0.8788 0.8787 0.8787 0.8786
2080.000000 0.8786 0.8785 0.8785 0.8784 0.8783
2085.000000 0.8782 0.8782 0.8781 0.8780 0.8779
2090.000000 0.8778 0.8777 0.8776 0.8775 0.8774
2095.000000 0.8773 0.8773 0.8772 0.8771 0.8770
2100.000000 0.8769 0.8768 0.8767 0.8766 0.8765
2105.000000 0.8764 0.8763 0.8761 0.8760 0.8758
2110.000000 0.8757 0.8755 0.8754 0.8753 0.8752
2115.000000 0.8750 0.8749 0.8747 0.8746 0.8745
2120.000000 0.8744 0.8742 0.8741 0.8739 0.8738
2125.000000 0.8736 0.8735 0.8733 0.8731 0.8729
2130.000000 0.8727 0.8724 0.8722 0.8719 0.8717
2135.000000 0.8714 0.8712 0.8709 0.8707 0.8705
2140.000000 0.8703 0.8700 0.8698 0.8695 0.8693
2145.000000 0.8690 0.8687 0.8684 0.8682 0.8679
2150.000000 0.8676 0.8673 0.8670 0.8667 0.8664
2155.000000 0.8661 0.8659 0.8656 0.8653 0.8651
2160.000000 0.8649 0.8647 0.8646 0.8644 0.8642
2165.000000 0.8640 0.8639 0.8637 0.8636 0.8634
2170.000000 0.8632 0.8632 0.8632 0.8632 0.8632
2175.000000 0.8632 0.8632 0.8633 0.8635 0.8638
2180.000000 0.8642 0.8649 0.8656 0.8664 0.8672
2185.000000 0.8680 0.8688 0.8696 0.8705 0.8708
2190.000000 0.8712 0.8715 0.8718 0.8721 0.8724
2195.000000 0.8726 0.8729 0.8730 0.8731 0.8731
2200.000000 0.8732 0.8733 0.8734 0.8734 0.8735
2205.000000 0.8735 0.8736 0.8735 0.8734 0.8733
2210.000000 0.8732 0.8731 0.8731 0.8730 0.8729
2215.000000 0.8728 0.8727 0.8726 0.8725 0.8723
2220.000000 0.8722 0.8720 0.8719 0.8717 0.8715
2225.000000 0.8713 0.8711 0.8709 0.8707 0.8705
2230.000000 0.8703 0.8701 0.8699 0.8697 0.8695
2235.000000 0.8693 0.8691 0.8688 0.8686 0.8683
2240.000000 0.8681 0.8678 0.8676 0.8673 0.8671
2245.000000 0.8668 0.8666 0.8663 0.8661 0.8660
2250.000000 0.8660 0.8659 0.8658 0.8659 0.8661
2255.000000 0.8662 0.8664 0.8666 0.8668 0.8669
2260.000000 0.8671 0.8673 0.8675 0.8676 0.8678
2265.000000 0.8680 0.8682 0.8683 0.8685 0.8687
2270.000000 0.8689 0.8691 0.8694 0.8696 0.8699
2275.000000 0.8701 0.8704 0.8707 0.8710 0.8712
2280.000000 0.8715 0.8717 0.8720 0.8722 0.8725
2285.000000 0.8727 0.8730 0.8732 0.8735 0.8738
2290.000000 0.8741 0.8743 0.8746 0.8748 0.8751
2295.000000 0.8753 0.8756 0.8758 0.8761 0.8763
2300.000000 0.8766 0.8768 0.8771 0.8773 0.8776
2305.000000 0.8779 0.8783 0.8786 0.8789 0.8792
2310.000000 0.8795 0.8792 0.8790 0.8786 0.8783
2315.000000 0.8779 0.8776 0.8772 0.8769 0.8765
2320.000000 0.8762 0.8758 0.8754 0.8749 0.8745
2325.000000 0.8741 0.8737 0.8732 0.8728 0.8724
2330.000000 0.8720 0.8718 0.8717 0.8716 0.8745
2335.000000 0.8715 0.8715 0.8714 0.8714 0.8715
2340.000000 0.8717 0.8718 0.8720 0.8721 0.8722
2345.000000 0.8723 0.8725 0.8726 0.8728 0.8731
2350.000000 0.8734 0.8737 0.8740 0.8743 0.8746
2355.000000 0.8749 0.8753 0.8758 0.8764 0.8769
2360.000000 0.8774 0.8778 0.8783 0.8787 0.8791
2365.000000 0.8794 0.8798 0.8800 0.8803 0.8803
2370.000000 0.8804 0.8804 0.8805 0.8805 0.8806
2375.000000 0.8805 0.8805 0.8805 0.8805 0.8804
2380.000000 0.8804 0.8803 0.8803 0.8802 0.8802
2385.000000 0.8802 0.8802 0.8801 0.8801 0.8801
2390.000000 0.8801 0.8800 0.8800 0.8800 0.8800
2395.000000 0.8799 0.8799 0.8799 0.8799 0.8798
2400.000000 0.8798 0.8798 0.8798 0.8797 0.8797
2405.000000 0.8797 0.8797 0.8796 0.8796 0.8795
2410.000000 0.8795 0.8794 0.8794 0.8793 0.8793
2415.000000 0.8792 0.8792 0.8791 0.8791 0.8790
2420.000000 0.8790 0.8789 0.8789 0.8788 0.8788
2425.000000 0.8787 0.8787 0.8786 0.8786 0.8785
2430.000000 0.8785 0.8785 0.8785 0.8784 0.8784
2435.000000 0.8783 0.8783 0.8782 0.8782 0.8781
2440.000000 0.8781 0.8780 0.8779 0.8778 0.8778
2445.000000 0.8777 0.8777 0.8776 0.8775 0.8774
2450.000000 0.8774 0.8773 0.8772 0.8771 0.8771
2455.000000 0.8770 0.8770 0.8769 0.8768 0.8767
2460.000000 0.8767 0.8766 0.8765 0.8764 0.8764
2465.000000 0.8763 0.8763 0.8762 0.8762 0.8761
2470.000000 0.8761 0.8760 0.8760 0.8759 0.8759
2475.000000 0.8758 0.8758 0.8757 0.8757 0.8756
2480.000000 0.8755 0.8754 0.8754 0.8753 0.8753
2485.000000 0.8752 0.8752 0.8751 0.8751 0.8750
2490.000000 0.8750 0.8749 0.8749 0.8748 0.8748
2495.000000 0.8748 0.8748 0.8748 0.8748 0.8748
2500.000000 0.8748 0.8747 0.8747 0.8747 0.8747
2505.000000 0.8747 0.8747 0.8746 0.8746 0.8746
2510.000000 0.8746 0.8746 0.8746 0.8745 0.8745
2515.000000 0.8745 0.8745 0.8745 0.8745 0.8745
2520.000000 0.8745 0.8744 0.8744 0.8744 0.8744
2525.000000 0.8744 0.8744 0.8743 0.8743 0.8743
2530.000000 0.8743 0.8743 0.8743 0.8742 0.8742
2535.000000 0.8742 0.8742 0.8742 0.8742 0.8742
2540.000000 0.8742 0.8741 0.8741 0.8741 0.8741
2545.000000 0.8741 0.8741 0.8740 0.8740 0.8740
2550.000000 0.8740 0.8740 0.8740 0.8739 0.8739
2555.000000 0.8739 0.8740 0.8740 0.8740 0.8740
2560.000000 0.8740 0.8740 0.8741 0.8741 0.8741
2565.000000 0.8741 0.8741 0.8741 0.8742 0.8742
2570.000000 0.8742 0.8742 0.8742 0.8742 0.8743
2575.000000 0.8743 0.8743 0.8743 0.8743 0.8743
2580.000000 0.8744 0.8744 0.8744 0.8744 0.8744
2585.000000 0.8744 0.8745 0.8745 0.8745 0.8745
2590.000000 0.8745 0.8745 0.8746 0.8746 0.8746
2595.000000 0.8746 0.8746 0.8746 0.8747 0.8747
2600.000000 0.8747 0.8747 0.8747 0.8747 0.8748
2605.000000 0.8748 0.8748 0.8748 0.8748 0.8748
2610.000000 0.8749 0.8749 0.8749 0.8749 0.8749
2615.000000 0.8749 0.8750 0.8750 0.8750 0.8750
2620.000000 0.8750 0.8750 0.8751 0.8751 0.8751
2625.000000 0.8751 0.8751 0.8751 0.8752 0.8752
2630.000000 0.8752 0.8752 0.8752 0.8752 0.8753
2635.000000 0.8753 0.8753 0.8753 0.8753 0.8753
2640.000000 0.8754 0.8754 0.8754 0.8754 0.8754
2645.000000 0.8754 0.8755 0.8755 0.8755 0.8755
2650.000000 0.8755 0.8755 0.8756 0.8756 0.8756
2655.000000 0.8756 0.8756 0.8756 0.8756 0.8756
2660.000000 0.8756 0.8756 0.8756 0.8756 0.8756
2665.000000 0.8756 0.8756 0.8756 0.8756 0.8756
2670.000000 0.8756 0.8756 0.8756 0.8756 0.8756
2675.000000 0.8756 0.8756 0.8756 0.8756 0.8756
2680.000000 0.8756 0.8756 0.8756 0.8756 0.8756
2685.000000 0.8756 0.8756 0.8756 0.8756 0.8756
2690.000000 0.8756 0.8756 0.8756 0.8755 0.8755
2695.000000 0.8755 0.8755 0.8755 0.8755 0.8755
2700.000000 0.8755 0.8754 0.8754 0.8754 0.8754
2705.000000 0.8753 0.8753 0.8753 0.8753 0.8752
2710.000000 0.8752 0.8752 0.8752 0.8752 0.8752
2715.000000 0.8751 0.8751 0.8751 0.8751 0.8750
2720.000000 0.8750 0.8750 0.8750 0.8749 0.8749
2725.000000 0.8749 0.8749 0.8749 0.8749 0.8748
2730.000000 0.8748 0.8748 0.8748 0.8747 0.8747
2735.000000 0.8747 0.8747 0.8746 0.8746 0.8745
2740.000000 0.8745 0.8744 0.8744 0.8744 0.8744
2745.000000 0.8743 0.8743 0.8742 0.8742 0.8741
2750.000000 0.8741 0.8740 0.8740 0.8739 0.8739
2755.000000 0.8739 0.8739 0.8738 0.8738 0.8737
2760.000000 0.8737 0.8736 0.8736 0.8735 0.8735
2765.000000 0.8734 0.8734 0.8734 0.8734 0.8733
2770.000000 0.8733 0.8732 0.8732 0.8731 0.8731
2775.000000 0.8730 0.8730 0.8729 0.8728 0.8727
2780.000000 0.8726 0.8725 0.8724 0.8722 0.8721
2785.000000 0.8720 0.8719 0.8718 0.8717 0.8716
2790.000000 0.8715 0.8713 0.8712 0.8711 0.8710
2795.000000 0.8709 0.8708 0.8707 0.8706 0.8704
2800.000000 0.8703 0.8702 0.8701 0.8700 0.8699
2805.000000 0.8698 0.8697 0.8696 0.8696 0.8695
2810.000000 0.8694 0.8693 0.8693 0.8692 0.8691
2815.000000 0.8690 0.8690 0.8689 0.8688 0.8687
2820.000000 0.8687 0.8684 0.8681 0.8678 0.8676
2825.000000 0.8673 0.8671 0.8668 0.8665 0.8662
2830.000000 0.8660 0.8657 0.8654 0.8651 0.8649
2835.000000 0.8646 0.8644 0.8641 0.8638 0.8634
2840.000000 0.8630 0.8626 0.8623 0.8619 0.8615
2845.000000 0.8614 0.8613 0.8613 0.8614 0.8614
2850.000000 0.8615 0.8618 0.8622 0.8627 0.8633
2855.000000 0.8641 0.8650 0.8659 0.8668 0.8676
2860.000000 0.8685 0.8692 0.8699 0.8706 0.8713
2865.000000 0.8717 0.8721 0.8724 0.8727 0.8729
2870.000000 0.8732 0.8731 0.8731 0.8730 0.8730
2875.000000 0.8729 0.8729 0.8727 0.8726 0.8723
2880.000000 0.8721 0.8718 0.8715 0.8711 0.8708
2885.000000 0.8703 0.8698 0.8693 0.8688 0.8681
2890.000000 0.8675 0.8666 0.8658 0.8649 0.8641
2895.000000 0.8633 0.8625 0.8615 0.8605 0.8593
2900.000000 0.8581 0.8569 0.8557 0.8545 0.8533
2905.000000 0.8522 0.8511 0.8499 0.8488 0.8477
2910.000000 0.8466 0.8456 0.8447 0.8443 0.8439
2915.000000 0.8436 0.8433 0.8434 0.8436 0.8438
2920.000000 0.8440 0.8445 0.8451 0.8457 0.8464
2925.000000 0.8470 0.8476 0.8482 0.8488 0.8494
2930.000000 0.8500 0.8505 0.8511 0.8516 0.8522
2935.000000 0.8527 0.8533 0.8536 0.8539 0.8542
2940.000000 0.8546 0.8549 0.8552 0.8555 0.8558
2945.000000 0.8561 0.8564 0.8566 0.8569 0.8571
2950.000000 0.8574 0.8576 0.8579 0.8581 0.8584
2955.000000 0.8587 0.8590 0.8591 0.8592 0.8593
2960.000000 0.8594 0.8594 0.8595 0.8596 0.8597
2965.000000 0.8598 0.8599 0.8600 0.8601 0.8600
2970.000000 0.8599 0.8597 0.8596 0.8593 0.8590
2975.000000 0.8575 0.8560 0.8541 0.8523 0.8500
2980.000000 0.8478 0.8449 0.8420 0.8371 0.8323
2985.000000 0.8284 0.8246 0.8195 0.8145 0.8096
2990.000000 0.8047 0.7999 0.7951 0.7903 0.7855
2995.000000 0.7821 0.7788 0.7767 0.7747 0.7735
3000.000000 0.7724 0.7715 0.7707 0.7703 0.7699
3005.000000 0.7691 0.7684 0.7619 0.7555 0.7497
3010.000000 0.7439 0.7387 0.7336 0.7267 0.7198
3015.000000 0.7149 0.7101 0.7063 0.7026 0.6989
3020.000000 0.6952 0.6923 0.6894 0.6878 0.6863
3025.000000 0.6853 0.6844 0.6827 0.6811 0.6702
3030.000000 0.6593 0.6590 0.6587 0.6585 0.6584
3035.000000 0.6576 0.6568 0.6557 0.6571 0.6539
3040.000000 0.6533 0.6534 0.6535 0.6562 0.6590
3045.000000 0.6629 0.6668 0.6698 0.6728 0.6764
3050.000000 0.6800 0.6859 0.6919 0.7012 0.7106
3055.000000 0.7156 0.7206 0.7216 0.7227 0.7232
3060.000000 0.7238 0.7123 0.7250 0.6880 0.6752
3065.000000 0.6623 0.6495 0.6366 0.6238 0.6109
3070.000000 0.5980 0.5849 0.5719 0.5705 0.5692
3075.000000 0.5689 0.5698 0.5690 0.5694 0.5719
3080.000000 0.5745 0.5774 0.5804 0.5822 0.5841
3085.000000 0.5851 0.5862 0.5864 0.5867 0.5869
3090.000000 0.5872 0.5872 0.5873 0.5875 0.5877
3095.000000 0.6052 0.6227 0.6449 0.6671 0.6893
3100.000000 0.7115 0.7336 0.7558 0.7748 0.7938
3105.000000 0.8126 0.8314 0.8384 0.8455 0.8484
3110.000000 0.8513 0.8539 0.8565 0.8587 0.8609
3115.000000 0.8619 0.8630 0.8637 0.8645 0.8651
3120.000000 0.8658 0.8661 0.8664 0.8667 0.8670
3125.000000 0.8670 0.8670 0.8669 0.8668 0.8667
3130.000000 0.8666 0.8665 0.8664 0.8663 0.8662
3135.000000 0.8661 0.8660 0.8658 0.8657 0.8656
3140.000000 0.8655 0.8654 0.8653 0.8651 0.8650
3145.000000 0.8648 0.8647 0.8646 0.8645 0.8643
3150.000000 0.8642 0.8641 0.8640 0.8640 0.8641
3155.000000 0.8642 0.8643 0.8644 0.8645 0.8646
3160.000000 0.8647 0.8648 0.8650 0.8653 0.8656
3165.000000 0.8660 0.8665 0.8669 0.8674 0.8680
3170.000000 0.8686 0.8692 0.8698 0.8702 0.8707
3175.000000 0.8711 0.8715 0.8716 0.8718 0.8718
3180.000000 0.8719 0.8719 0.8720 0.8720 0.8720
3185.000000 0.8720 0.8720 0.8719 0.8719 0.8719
3190.000000 0.8719 0.8718 0.8718 0.8718 0.8718
3195.000000 0.8717 0.8717 0.8717 0.8717 0.8716
3200.000000 0.8716 0.8716 0.8716 0.8715 0.8715
3205.000000 0.8715 0.8715 0.8714 0.8714 0.8714
3210.000000 0.8714 0.8713 0.8713 0.8713 0.8713
3215.000000 0.8712 0.8712 0.8712 0.8712 0.8711
3220.000000 0.8710 0.8709 0.8709 0.8708 0.8708
3225.000000 0.8707 0.8707 0.8706 0.8706 0.8705
3230.000000 0.8705 0.8704 0.8704 0.8703 0.8703
3235.000000 0.8702 0.8702 0.8701 0.8700 0.8699
3240.000000 0.8699 0.8699 0.8699 0.8698 0.8698
3245.000000 0.8697 0.8697 0.8697 0.8697 0.8696
3250.000000 0.8696 0.8695 0.8695 0.8694 0.8694
3255.000000 0.8694 0.8694 0.8693 0.8693 0.8692
3260.000000 0.8692 0.8692 0.8692 0.8691 0.8691
3265.000000 0.8690 0.8690 0.8689 0.8689 0.8689
3270.000000 0.8689 0.8688 0.8688 0.8687 0.8687
3275.000000 0.8686 0.8686 0.8685 0.8685 0.8684
3280.000000 0.8684 0.8683 0.8683 0.8682 0.8682
3285.000000 0.8681 0.8681 0.8680 0.8680 0.8679
3290.000000 0.8679 0.8678 0.8677 0.8676 0.8676
3295.000000 0.8675 0.8675 0.8674 0.8674 0.8673
3300.000000 0.8673 0.8672 0.8672 0.8671 0.8671
3305.000000 0.8671 0.8671 0.8671 0.8671 0.8671
3310.000000 0.8671 0.8671 0.8672 0.8672 0.8672
3315.000000 0.8672 0.8672 0.8672 0.8672 0.8672
3320.000000 0.8672 0.8672 0.8672 0.8672 0.8672
3325.000000 0.8672 0.8672 0.8672 0.8672 0.8672
3330.000000 0.8672 0.8672 0.8673 0.8673 0.8673
3335.000000 0.8673 0.8673 0.8673 0.8673 0.8673
3340.000000 0.8673 0.8673 0.8673 0.8673 0.8673
3345.000000 0.8673 0.8673 0.8673 0.8673 0.8673
3350.000000 0.8673 0.8673 0.8674 0.8674 0.8674
3355.000000 0.8674 0.8674 0.8674 0.8675 0.8675
3360.000000 0.8675 0.8675 0.8676 0.8676 0.8676
3365.000000 0.8676 0.8676 0.8676 0.8677 0.8677
3370.000000 0.8677 0.8677 0.8678 0.8678 0.8678
3375.000000 0.8678 0.8679 0.8679 0.8679 0.8679
3380.000000 0.8680 0.8680 0.8680 0.8680 0.8681
3385.000000 0.8681 0.8681 0.8681 0.8681 0.8681
3390.000000 0.8681 0.8681 0.8681 0.8681 0.8681
3395.000000 0.8681 0.8682 0.8682 0.8682 0.8682
3400.000000 0.8682 0.8682 0.8682 0.8682 0.8682
3405.000000 0.8682 0.8682 0.8682 0.8683 0.8683
3410.000000 0.8683 0.8683 0.8683 0.8683 0.8683
3415.000000 0.8683 0.8683 0.8683 0.8683 0.8683
3420.000000 0.8683 0.8683 0.8684 0.8684 0.8685
3425.000000 0.8685 0.8686 0.8687 0.8688 0.8688
3430.000000 0.8689 0.8690 0.8691 0.8692 0.8693
3435.000000 0.8693 0.8694 0.8695 0.8696 0.8696
3440.000000 0.8697 0.8698 0.8699 0.8699 0.8700
3445.000000 0.8701 0.8702 0.8703 0.8704 0.8704
3450.000000 0.8705 0.8706 0.8707 0.8707 0.8708
3455.000000 0.8709 0.8710 0.8710 0.8711 0.8711
3460.000000 0.8711 0.8711 0.8712 0.8712 0.8713
3465.000000 0.8713 0.8714 0.8714 0.8715 0.8715
3470.000000 0.8715 0.8715 0.8716 0.8716 0.8717
3475.000000 0.8717 0.8718 0.8718 0.8718 0.8718
3480.000000 0.8719 0.8719 0.8720 0.8720 0.8721
3485.000000 0.8721 0.8721 0.8721 0.8722 0.8722
3490.000000 0.8722 0.8722 0.8722 0.8722 0.8723
3495.000000 0.8723 0.8723 0.8723 0.8724 0.8724
3500.000000 0.8724 0.8724 0.8724 0.8724 0.8725
3505.000000 0.8725 0.8725 0.8725 0.8726 0.8726
3510.000000 0.8726 0.8726 0.8727 0.8727 0.8727
3515.000000 0.8727 0.8727 0.8727 0.8728 0.8728
3520.000000 0.8729 0.8729 0.8730 0.8730 0.8731
3525.000000 0.8731 0.8732 0.8732 0.8733 0.8733
3530.000000 0.8734 0.8734 0.8735 0.8736 0.8737
3535.000000 0.8737 0.8738 0.8738 0.8739 0.8739
3540.000000 0.8740 0.8740 0.8741 0.8741 0.8742
3545.000000 0.8742 0.8743 0.8743 0.8744 0.8744
3550.000000 0.8745 0.8746 0.8747 0.8747 0.8748
3555.000000 0.8748 0.8749 0.8749 0.8750 0.8750
3560.000000 0.8751 0.8751 0.8752 0.8752 0.8753
3565.000000 0.8753 0.8753 0.8752 0.8752 0.8751
3570.000000 0.8751 0.8750 0.8749 0.8748 0.8748
3575.000000 0.8747 0.8747 0.8746 0.8745 0.8744
3580.000000 0.8744 0.8743 0.8743 0.8742 0.8741
3585.000000 0.8740 0.8740 0.8739 0.8739 0.8738
3590.000000 0.8737 0.8736 0.8736 0.8735 0.8735
3595.000000 0.8734 0.8733 0.8731 0.8730 0.8729
3600.000000 0.8728 0.8727 0.8726 0.8725 0.8724
3605.000000 0.8722 0.8721 0.8720 0.8719 0.8718
3610.000000 0.8717 0.8716 0.8715 0.8713 0.8712
3615.000000 0.8711 0.8710 0.8709 0.8708 0.8706
3620.000000 0.8705 0.8704 0.8703 0.8702 0.8701
3625.000000 0.8700 0.8699 0.8697 0.8696 0.8695
3630.000000 0.8694 0.8693 0.8693 0.8692 0.8692
3635.000000 0.8692 0.8692 0.8691 0.8691 0.8690
3640.000000 0.8690 0.8689 0.8689 0.8688 0.8688
3645.000000 0.8687 0.8687 0.8686 0.8686 0.8685
3650.000000 0.8685 0.8685 0.8685 0.8684 0.8684
3655.000000 0.8683 0.8683 0.8682 0.8682 0.8682
3660.000000 0.8683 0.8683 0.8684 0.8685 0.8686
3665.000000 0.8686 0.8687 0.8687 0.8688 0.8688
3670.000000 0.8689 0.8689 0.8690 0.8691 0.8692
3675.000000 0.8692 0.8693 0.8693 0.8694 0.8694
3680.000000 0.8695 0.8696 0.8697 0.8697 0.8697
3685.000000 0.8697 0.8697 0.8697 0.8697 0.8697
3690.000000 0.8697 0.8697 0.8697 0.8697 0.8697
3695.000000 0.8696 0.8696 0.8696 0.8696 0.8694
3700.000000 0.8692 0.8690 0.8689 0.8687 0.8686
3705.000000 0.8684 0.8682 0.8680 0.8679 0.8677
3710.000000 0.8676 0.8674 0.8673 0.8671 0.8670
3715.000000 0.8668 0.8667 0.8665 0.8663 0.8661
3720.000000 0.8660 0.8658 0.8657 0.8657 0.8658
3725.000000 0.8658 0.8659 0.8660 0.8661 0.8662
3730.000000 0.8663 0.8664 0.8665 0.8666 0.8667
3735.000000 0.8668 0.8670 0.8671 0.8672 0.8673
3740.000000 0.8674 0.8675 0.8676 0.8676 0.8676
3745.000000 0.8676 0.8676 0.8676 0.8676 0.8676
3750.000000 0.8676 0.8676 0.8676 0.8676 0.8676
3755.000000 0.8676 0.8676 0.8675 0.8674 0.8673
3760.000000 0.8673 0.8672 0.8671 0.8670 0.8670
3765.000000 0.8669 0.8668 0.8667 0.8666 0.8665
3770.000000 0.8665 0.8664 0.8663 0.8662 0.8661
3775.000000 0.8660 0.8659 0.8657 0.8656 0.8655
3780.000000 0.8654 0.8653 0.8652 0.8652 0.8652
3785.000000 0.8652 0.8652 0.8652 0.8652 0.8652
3790.000000 0.8652 0.8651 0.8651 0.8651 0.8651
3795.000000 0.8651 0.8651
##END=
