##TITLE=n-HEXANE
##JCAMP-DX=4.24
##DATA TYPE=INFRARED SPECTRUM
##CLASS=COBLENTZ
##ORIGIN=DOW CHEMICAL COMPANY
##OWNER=COBLENTZ SOCIETY
Collection (C) 2018 copyright by the U.S. Secretary of Commerce
on behalf of the United States of America. All rights reserved.
##DATE=1979/03/14
##CAS REGISTRY NO=110-54-3
##MOLFORM=C6 H14
##SOURCE REFERENCE=COBLENTZ NO. 10501
##$NIST SOURCE=COBLENTZ
##$NIST IMAGE=cob-r10501
##SPECTROMETER/DATA SYSTEM=BECKMAN IR-9 (GRATING)
##INSTRUMENT PARAMETERS=ORDER CHANGES: 670, 1200, 2000 CM^-^1
$$ ABSORPTIONS DUE TO UNKNOWNS AT 1741 AND 1184 CM^-^1.
##STATE=GAS (12 mmHg, N2 ADDED, TOTAL PRESSURE 600 mmHg)
##PATH LENGTH=10 CM
##SAMPLING PROCEDURE=TRANSMISSION
##RESOLUTION=2
##DATA PROCESSING=DIGITIZED BY NIST FROM HARD COPY (FROM TWO SEGMENTS)
##XUNITS=1/CM
##YUNITS=TRANSMITTANCE
##XFACTOR=1.000000
##YFACTOR=1
##DELTAX=1.405153
##FIRSTX=200
##LASTX=3979.86
##FIRSTY=0
##MAXX=3979.86
##MINX=200
##MAXY=0.953
##MINY=0
##NPOINTS=2691
##XYDATA=(X++(Y..Y))
200.000000 0.0000 0.0000 0.0000 0.0000 0.0000
207.025766 0.0000 0.0000 0.0000 0.0000 0.0000
214.051532 0.0000 0.0000 0.0000 0.0000 0.0000
221.077298 0.0000 0.0000 0.0000 0.0000 0.0000
228.103064 0.0000 0.0000 0.0000 0.0000 0.0000
235.128830 0.0000 0.0000 0.0000 0.0000 0.0000
242.154596 0.0000 0.0000 0.0000 0.0000 0.0000
249.180362 0.0010 0.0010 0.0010 0.0030 0.0030
256.206128 0.0030 0.0010 0.0010 0.0010 0.0010
263.231894 0.0010 0.0000 0.0000 0.0000 0.0000
270.257660 0.0000 0.0000 0.0000 0.0000 0.0000
277.283426 0.0010 0.0010 0.0050 0.0070 0.0070
284.309192 0.0070 0.0050 0.0000 0.0000 0.0000
291.334958 0.0000 0.0000 0.0000 0.0000 0.0010
298.360724 0.0010 0.0030 0.0030 0.0050 0.0070
305.386490 0.0070 0.0090 0.0110 0.0130 0.0140
312.412256 0.0180 0.0220 0.0240 0.0240 0.0260
319.438022 0.0280 0.0290 0.0310 0.0330 0.0370
326.463788 0.0390 0.0410 0.0430 0.0460 0.0500
333.489554 0.0520 0.0580 0.0590 0.0669 0.0730
340.515320 0.0780 0.0880 0.0990 0.1020 0.1080
347.541086 0.1140 0.1250 0.1340 0.1469 0.1549
354.566852 0.1680 0.1760 0.1810 0.1960 0.2020
361.592618 0.2090 0.2279 0.2320 0.2489 0.2520
368.618384 0.2640 0.2730 0.2860 0.2990 0.3070
375.644150 0.3160 0.3270 0.3310 0.3350 0.3479
382.669916 0.3550 0.3680 0.3800 0.3870 0.3980
389.695682 0.4040 0.4169 0.4279 0.4399 0.4470
396.721448 0.4560 0.4640 0.4730 0.4850 0.4980
403.747214 0.5050 0.5199 0.5309 0.5370 0.5499
410.772980 0.5580 0.5690 0.5780 0.5890 0.5970
417.798746 0.6040 0.6169 0.6269 0.6459 0.6490
424.824512 0.6530 0.6610 0.6660 0.6700 0.6770
431.850278 0.6870 0.6980 0.7000 0.7040 0.7070
438.876044 0.7170 0.7240 0.7370 0.7430 0.7450
445.901810 0.7490 0.7500 0.7520 0.7600 0.7670
452.927576 0.7730 0.7750 0.7800 0.7820 0.7860
459.953342 0.7920 0.7990 0.7990 0.8010 0.8030
466.979108 0.8080 0.8140 0.8180 0.8230 0.8230
474.004874 0.8290 0.8310 0.8330 0.8350 0.8380
481.030640 0.8400 0.8420 0.8480 0.8460 0.8480
488.056406 0.8480 0.8500 0.8570 0.8610 0.8699
495.082172 0.8700 0.8610 0.8590 0.8530 0.8500
502.107938 0.8500 0.8520 0.8530 0.8570 0.8590
509.133704 0.8630 0.8650 0.8680 0.8720 0.8760
516.159470 0.8780 0.8820 0.8830 0.8830 0.8830
523.185236 0.8830 0.8830 0.8830 0.8820 0.8780
530.211002 0.8760 0.8760 0.8740 0.8740 0.8740
537.236768 0.8740 0.8760 0.8760 0.8780 0.8800
544.262534 0.8800 0.8830 0.8870 0.8910 0.8950
551.288300 0.8950 0.8950 0.8970 0.8970 0.8970
558.314066 0.8950 0.8950 0.8950 0.8930 0.8910
565.339832 0.8890 0.8870 0.8830 0.8830 0.8820
572.365598 0.8800 0.8800 0.8780 0.8780 0.8800
579.391364 0.8800 0.8820 0.8820 0.8830 0.8830
586.417130 0.8850 0.8870 0.8890 0.8890 0.8910
593.442896 0.8910 0.8910 0.8930 0.8930 0.8930
600.468662 0.8910 0.8910 0.8910 0.8890 0.8890
607.494428 0.8890 0.8890 0.8870 0.8870 0.8870
614.520194 0.8850 0.8830 0.8820 0.8820 0.8800
621.545960 0.8800 0.8800 0.8800 0.8800 0.8800
628.571726 0.8820 0.8820 0.8820 0.8820 0.8820
635.597492 0.8830 0.8830 0.8850 0.8870 0.8870
642.623258 0.8850 0.8850 0.8820 0.8820 0.8830
649.649024 0.8950 0.9040 0.9060 0.9100 0.9110
656.674790 0.9110 0.9130 0.9130 0.9130 0.9209
663.700556 0.9280 0.9300 0.9300 0.9190 0.9170
670.726322 0.9150 0.9170 0.9190 0.9210 0.9230
677.752088 0.9250 0.9260 0.9280 0.9280 0.9280
684.777854 0.9280 0.9280 0.9260 0.9260 0.9260
691.803620 0.9260 0.9230 0.9230 0.9210 0.9170
698.829386 0.9150 0.9150 0.9080 0.9020 0.9000
705.855152 0.8980 0.8970 0.8970 0.8910 0.8890
712.880918 0.8850 0.8760 0.8720 0.8680 0.8630
719.906684 0.8590 0.8550 0.8530 0.8520 0.8500
726.932450 0.8500 0.8520 0.8520 0.8530 0.8550
733.958216 0.8550 0.8610 0.8630 0.8700 0.8740
740.983982 0.8780 0.8820 0.8850 0.8910 0.8930
748.009748 0.8950 0.8970 0.8970 0.8980 0.9000
755.035514 0.9000 0.9000 0.9000 0.9000 0.8980
762.061280 0.8980 0.8980 0.8980 0.8980 0.9000
769.087046 0.9020 0.9040 0.9080 0.9110 0.9130
776.112812 0.9130 0.9150 0.9170 0.9170 0.9190
783.138578 0.9190 0.9190 0.9210 0.9210 0.9210
790.164344 0.9210 0.9210 0.9190 0.9190 0.9210
797.190110 0.9210 0.9190 0.9190 0.9190 0.9190
804.215876 0.9210 0.9210 0.9210 0.9210 0.9210
811.241642 0.9210 0.9210 0.9210 0.9210 0.9210
818.267408 0.9210 0.9230 0.9230 0.9230 0.9230
825.293174 0.9250 0.9250 0.9250 0.9260 0.9280
832.318940 0.9300 0.9300 0.9300 0.9300 0.9300
839.344706 0.9300 0.9300 0.9320 0.9320 0.9340
846.370472 0.9340 0.9340 0.9340 0.9340 0.9340
853.396238 0.9320 0.9320 0.9320 0.9300 0.9260
860.422004 0.9250 0.9230 0.9230 0.9210 0.9190
867.447770 0.9150 0.9130 0.9110 0.9100 0.9080
874.473536 0.9040 0.9020 0.9000 0.8980 0.8970
881.499302 0.8950 0.8930 0.8890 0.8850 0.8850
888.525068 0.8800 0.8800 0.8780 0.8780 0.8760
895.550834 0.8760 0.8760 0.8760 0.8780 0.8800
902.576600 0.8820 0.8820 0.8830 0.8850 0.8890
909.602366 0.8910 0.8910 0.8930 0.8950 0.8950
916.628132 0.8970 0.8980 0.9020 0.9020 0.9040
923.653898 0.9080 0.9150 0.9170 0.9190 0.9190
930.679664 0.9250 0.9260 0.9280 0.9320 0.9340
937.705430 0.9340 0.9360 0.9360 0.9380 0.9380
944.731196 0.9380 0.9380 0.9380 0.9360 0.9360
951.756962 0.9360 0.9340 0.9340 0.9340 0.9320
958.782728 0.9320 0.9300 0.9300 0.9300 0.9300
965.808494 0.9280 0.9280 0.9260 0.9260 0.9250
972.834260 0.9230 0.9190 0.9170 0.9150 0.9150
979.860026 0.9150 0.9130 0.9130 0.9110 0.9110
986.885792 0.9100 0.9080 0.9060 0.9060 0.9060
993.911558 0.9060 0.9060 0.9060 0.9060 0.9080
1000.937324 0.9080 0.9100 0.9100 0.9100 0.9100
1007.963090 0.9100 0.9080 0.9060 0.9060 0.9040
1014.988856 0.9040 0.9040 0.9040 0.9040 0.9040
1022.014622 0.9040 0.9040 0.9020 0.9020 0.9020
1029.040388 0.9020 0.9020 0.9000 0.9000 0.9000
1036.066154 0.9000 0.9000 0.9000 0.9000 0.9000
1043.091920 0.9020 0.9000 0.9000 0.9000 0.9000
1050.117686 0.9000 0.8980 0.8980 0.8980 0.8950
1057.143452 0.8930 0.8930 0.8890 0.8830 0.8800
1064.169218 0.8780 0.8760 0.8740 0.8740 0.8760
1071.194984 0.8780 0.8780 0.8800 0.8800 0.8800
1078.220750 0.8820 0.8830 0.8850 0.8870 0.8890
1085.246516 0.8980 0.9000 0.9020 0.9060 0.9080
1092.272282 0.9130 0.9150 0.9150 0.9170 0.9170
1099.298048 0.9190 0.9210 0.9230 0.9230 0.9230
1106.323814 0.9230 0.9230 0.9230 0.9230 0.9230
1113.349580 0.9230 0.9210 0.9210 0.9210 0.9190
1120.375346 0.9170 0.9170 0.9150 0.9130 0.9110
1127.401112 0.9080 0.9040 0.9020 0.9000 0.9000
1134.426878 0.8970 0.8930 0.8930 0.8910 0.8910
1141.452644 0.8850 0.8850 0.8830 0.8830 0.8820
1148.478410 0.8800 0.8800 0.8800 0.8820 0.8830
1155.504176 0.8850 0.8950 0.9000 0.9040 0.9080
1162.529942 0.9080 0.9100 0.9110 0.9110 0.9130
1169.555708 0.9150 0.9150 0.9150 0.9170 0.9190
1176.581474 0.9190 0.9190 0.9110 0.8971 0.8801
1183.607240 0.8800 0.8950 0.9080 0.9210 0.9230
1190.633006 0.9260 0.9280 0.9280 0.9280 0.9280
1197.658772 0.9280 0.9260 0.9260 0.9250 0.9230
1204.684538 0.9230 0.9210 0.9190 0.9190 0.9170
1211.710304 0.9130 0.9130 0.9110 0.9110 0.9100
1218.736070 0.9100 0.9080 0.9080 0.9060 0.9040
1225.761836 0.9040 0.9020 0.9020 0.9040 0.9060
1232.787602 0.9080 0.9100 0.9100 0.9100 0.9100
1239.813368 0.9100 0.9080 0.9060 0.9060 0.9020
1246.839134 0.9020 0.9000 0.8970 0.8930 0.8910
1253.864900 0.8890 0.8890 0.8910 0.8930 0.9000
1260.890666 0.9020 0.9020 0.9040 0.9060 0.9080
1267.916432 0.9080 0.9100 0.9100 0.9100 0.9100
1274.942198 0.9080 0.9080 0.9060 0.9060 0.9040
1281.967964 0.9040 0.9020 0.9020 0.9000 0.8980
1288.993730 0.8950 0.8850 0.8820 0.8800 0.8800
1296.019496 0.8780 0.8760 0.8760 0.8720 0.8700
1303.045262 0.8700 0.8680 0.8680 0.8680 0.8700
1310.071028 0.8700 0.8740 0.8780 0.8800 0.8800
1317.096794 0.8820 0.8830 0.8850 0.8850 0.8890
1324.122560 0.8910 0.8910 0.8910 0.8910 0.8890
1331.148327 0.8890 0.8850 0.8820 0.8800 0.8701
1338.174093 0.8610 0.8520 0.8460 0.8440 0.8420
1345.199859 0.8400 0.8380 0.8370 0.8350 0.8310
1352.225625 0.8230 0.8220 0.8230 0.8250 0.8270
1359.251391 0.8290 0.8290 0.8270 0.8270 0.8230
1366.277157 0.8200 0.8140 0.8100 0.8030 0.7950
1373.302923 0.7860 0.7770 0.7621 0.7521 0.7371
1380.328689 0.7170 0.7020 0.6640 0.6550 0.6470
1387.354455 0.6460 0.6460 0.6460 0.6440 0.6440
1394.380221 0.6460 0.6610 0.6700 0.6770 0.7019
1401.405987 0.7239 0.7429 0.7669 0.7839 0.8029
1408.431753 0.8180 0.8270 0.8400 0.8520 0.8570
1415.457519 0.8630 0.8700 0.8780 0.8800 0.8820
1422.483285 0.8820 0.8820 0.8820 0.8800 0.8760
1429.509051 0.8740 0.8700 0.8670 0.8590 0.8530
1436.534817 0.8500 0.8380 0.8310 0.8180 0.8010
1443.560583 0.7821 0.7641 0.7521 0.7301 0.6922
1450.586349 0.6640 0.6570 0.6490 0.6250 0.6020
1457.612115 0.5711 0.5541 0.5331 0.5141 0.4921
1464.637881 0.4750 0.4640 0.4510 0.4400 0.4250
1471.663647 0.4150 0.4150 0.4210 0.4260 0.4359
1478.689413 0.4490 0.4530 0.4730 0.5010 0.5090
1485.715179 0.5260 0.5479 0.5779 0.6059 0.6338
1492.740945 0.6620 0.6760 0.6890 0.7130 0.7369
1499.766711 0.7579 0.7749 0.7939 0.8139 0.8309
1506.792477 0.8420 0.8520 0.8570 0.8630 0.8680
1513.818243 0.8740 0.8830 0.8890 0.8950 0.8970
1520.844009 0.8980 0.9000 0.9000 0.9000 0.9020
1527.869775 0.9020 0.9020 0.9040 0.9040 0.9060
1534.895541 0.9060 0.9080 0.9080 0.9080 0.9080
1541.921307 0.9060 0.9040 0.9040 0.9040 0.9040
1548.947073 0.9060 0.9060 0.9080 0.9080 0.9100
1555.972839 0.9110 0.9110 0.9100 0.9100 0.9100
1562.998605 0.9100 0.9100 0.9100 0.9110 0.9130
1570.024371 0.9150 0.9150 0.9150 0.9150 0.9150
1577.050137 0.9150 0.9150 0.9170 0.9170 0.9190
1584.075903 0.9210 0.9210 0.9230 0.9230 0.9230
1591.101669 0.9230 0.9230 0.9230 0.9210 0.9210
1598.127435 0.9210 0.9210 0.9210 0.9230 0.9210
1605.153201 0.9190 0.9190 0.9190 0.9190 0.9170
1612.178967 0.9170 0.9150 0.9150 0.9150 0.9130
1619.204733 0.9130 0.9110 0.9110 0.9110 0.9130
1626.230499 0.9130 0.9130 0.9150 0.9150 0.9170
1633.256265 0.9170 0.9170 0.9170 0.9170 0.9150
1640.282031 0.9150 0.9170 0.9170 0.9170 0.9170
1647.307797 0.9170 0.9170 0.9170 0.9170 0.9170
1654.333563 0.9150 0.9150 0.9130 0.9150 0.9150
1661.359329 0.9170 0.9190 0.9190 0.9190 0.9190
1668.385095 0.9190 0.9190 0.9170 0.9170 0.9190
1675.410861 0.9190 0.9190 0.9170 0.9170 0.9170
1682.436627 0.9170 0.9170 0.9150 0.9130 0.9110
1689.462393 0.9110 0.9130 0.9170 0.9190 0.9190
1696.488159 0.9190 0.9190 0.9150 0.9150 0.9130
1703.513925 0.9110 0.9110 0.9130 0.9150 0.9150
1710.539691 0.9170 0.9170 0.9190 0.9190 0.9190
1717.565457 0.9190 0.9150 0.9150 0.9130 0.9110
1724.591223 0.9110 0.9080 0.9060 0.9040 0.9040
1731.616989 0.9020 0.9000 0.8970 0.8910 0.8890
1738.642755 0.8870 0.8870 0.8890 0.8910 0.8930
1745.668521 0.8950 0.8950 0.8970 0.8980 0.9020
1752.694287 0.9040 0.9060 0.9080 0.9110 0.9150
1759.720053 0.9190 0.9210 0.9210 0.9230 0.9250
1766.745819 0.9250 0.9250 0.9250 0.9250 0.9230
1773.771585 0.9230 0.9210 0.9210 0.9230 0.9230
1780.797351 0.9250 0.9260 0.9260 0.9260 0.9260
1787.823117 0.9260 0.9260 0.9250 0.9250 0.9250
1794.848883 0.9250 0.9230 0.9250 0.9250 0.9250
1801.874649 0.9280 0.9280 0.9260 0.9260 0.9260
1808.900415 0.9280 0.9280 0.9300 0.9300 0.9320
1815.926181 0.9320 0.9320 0.9320 0.9300 0.9300
1822.951947 0.9300 0.9300 0.9300 0.9280 0.9280
1829.977713 0.9300 0.9300 0.9320 0.9320 0.9320
1837.003479 0.9320 0.9320 0.9300 0.9300 0.9300
1844.029245 0.9300 0.9300 0.9320 0.9320 0.9320
1851.055011 0.9320 0.9320 0.9320 0.9320 0.9300
1858.080777 0.9300 0.9300 0.9300 0.9300 0.9300
1865.106543 0.9280 0.9280 0.9300 0.9300 0.9300
1872.132309 0.9320 0.9320 0.9320 0.9320 0.9320
1879.158075 0.9320 0.9320 0.9320 0.9300 0.9300
1886.183841 0.9300 0.9280 0.9280 0.9260 0.9260
1893.209607 0.9260 0.9260 0.9260 0.9260 0.9250
1900.235373 0.9250 0.9250 0.9250 0.9260 0.9260
1907.261139 0.9280 0.9260 0.9260 0.9250 0.9250
1914.286905 0.9250 0.9250 0.9260 0.9260 0.9280
1921.312671 0.9280 0.9300 0.9300 0.9300 0.9300
1928.338437 0.9300 0.9300 0.9300 0.9300 0.9300
1935.364203 0.9300 0.9300 0.9300 0.9300 0.9300
1942.389969 0.9300 0.9300 0.9300 0.9300 0.9300
1949.415735 0.9300 0.9300 0.9300 0.9300 0.9300
1956.441501 0.9300 0.9300 0.9280 0.9280 0.9280
1963.467267 0.9280 0.9260 0.9260 0.9260 0.9260
1970.493033 0.9260 0.9260 0.9260 0.9260 0.9260
1977.518799 0.9260 0.9250 0.9250 0.9250 0.9250
1984.544565 0.9230 0.9230 0.9230 0.9230 0.9230
1991.570331 0.9210 0.9150 0.9130 0.9130 0.9210
1998.596097 0.9230 0.9260 0.9270 0.9280 0.9290
2005.621863 0.9300 0.9300 0.9300 0.9300 0.9300
2012.647629 0.9300 0.9300 0.9300 0.9300 0.9300
2019.673395 0.9300 0.9291 0.9281 0.9271 0.9261
2026.699161 0.9255 0.9250 0.9240 0.9231 0.9230
2033.724927 0.9230 0.9221 0.9211 0.9210 0.9210
2040.750693 0.9210 0.9210 0.9210 0.9210 0.9210
2047.776459 0.9210 0.9219 0.9229 0.9230 0.9230
2054.802225 0.9239 0.9249 0.9250 0.9250 0.9250
2061.827991 0.9250 0.9254 0.9259 0.9260 0.9260
2068.853757 0.9260 0.9260 0.9260 0.9260 0.9260
2075.879523 0.9260 0.9269 0.9278 0.9280 0.9280
2082.905289 0.9280 0.9280 0.9289 0.9299 0.9300
2089.931055 0.9300 0.9300 0.9300 0.9300 0.9300
2096.956821 0.9300 0.9300 0.9300 0.9300 0.9308
2103.982587 0.9318 0.9320 0.9320 0.9320 0.9320
2111.008353 0.9320 0.9320 0.9320 0.9320 0.9320
2118.034119 0.9320 0.9320 0.9320 0.9320 0.9320
2125.059885 0.9320 0.9320 0.9320 0.9320 0.9320
2132.085651 0.9320 0.9312 0.9302 0.9300 0.9300
2139.111417 0.9300 0.9300 0.9292 0.9282 0.9280
2146.137183 0.9280 0.9280 0.9280 0.9280 0.9280
2153.162949 0.9280 0.9280 0.9280 0.9280 0.9280
2160.188715 0.9280 0.9280 0.9280 0.9273 0.9263
2167.214481 0.9260 0.9260 0.9260 0.9260 0.9260
2174.240247 0.9260 0.9256 0.9252 0.9243 0.9233
2181.266013 0.9230 0.9230 0.9230 0.9230 0.9230
2188.291779 0.9230 0.9230 0.9230 0.9230 0.9230
2195.317545 0.9230 0.9230 0.9230 0.9230 0.9230
2202.343311 0.9230 0.9230 0.9230 0.9230 0.9230
2209.369077 0.9230 0.9230 0.9230 0.9230 0.9236
2216.394843 0.9246 0.9250 0.9250 0.9250 0.9250
2223.420609 0.9250 0.9250 0.9250 0.9250 0.9253
2230.446375 0.9258 0.9266 0.9276 0.9280 0.9280
2237.472141 0.9280 0.9280 0.9280 0.9280 0.9280
2244.497907 0.9280 0.9280 0.9280 0.9280 0.9280
2251.523673 0.9280 0.9280 0.9280 0.9280 0.9274
2258.549439 0.9264 0.9260 0.9260 0.9260 0.9260
2265.575205 0.9260 0.9260 0.9257 0.9252 0.9250
2272.600971 0.9250 0.9250 0.9250 0.9250 0.9250
2279.626737 0.9250 0.9250 0.9250 0.9250 0.9250
2286.652503 0.9250 0.9250 0.9250 0.9250 0.9250
2293.678269 0.9253 0.9257 0.9260 0.9260 0.9265
2300.704035 0.9275 0.9285 0.9295 0.9305 0.9315
2307.729801 0.9325 0.9335 0.9345 0.9355 0.9365
2314.755567 0.9375 0.9385 0.9395 0.9402 0.9407
2321.781333 0.9415 0.9424 0.9439 0.9459 0.9474
2328.807099 0.9484 0.9499 0.9519 0.9530 0.9530
2335.832865 0.9530 0.9530 0.9530 0.9530 0.9530
2342.858631 0.9530 0.9526 0.9516 0.9506 0.9496
2349.884397 0.9490 0.9490 0.9494 0.9504 0.9510
2356.910163 0.9510 0.9510 0.9510 0.9506 0.9496
2363.935929 0.9490 0.9490 0.9478 0.9448 0.9430
2370.961695 0.9430 0.9424 0.9409 0.9396 0.9386
2377.987461 0.9373 0.9353 0.9333 0.9313 0.9288
2385.013227 0.9253 0.9230 0.9230 0.9227 0.9217
2392.038993 0.9207 0.9197 0.9190 0.9190 0.9190
2399.064759 0.9190 0.9197 0.9216 0.9233 0.9243
2406.090525 0.9250 0.9250 0.9247 0.9237 0.9227
2413.116291 0.9217 0.9207 0.9197 0.9190 0.9190
2420.142057 0.9187 0.9177 0.9170 0.9170 0.9173
2427.167823 0.9183 0.9190 0.9190 0.9190 0.9190
2434.193589 0.9193 0.9203 0.9213 0.9223 0.9230
2441.219355 0.9230 0.9230 0.9230 0.9230 0.9230
2448.245121 0.9230 0.9230 0.9230 0.9230 0.9232
2455.270887 0.9242 0.9250 0.9250 0.9250 0.9250
2462.296653 0.9251 0.9256 0.9260 0.9260 0.9260
2469.322419 0.9260 0.9262 0.9272 0.9280 0.9280
2476.348185 0.9280 0.9280 0.9280 0.9280 0.9280
2483.373951 0.9280 0.9280 0.9280 0.9280 0.9280
2490.399717 0.9280 0.9280 0.9280 0.9280 0.9280
2497.425483 0.9280 0.9280 0.9280 0.9280 0.9280
2504.451249 0.9279 0.9269 0.9260 0.9260 0.9260
2511.477015 0.9260 0.9260 0.9260 0.9260 0.9260
2518.502781 0.9260 0.9260 0.9260 0.9260 0.9259
2525.528547 0.9254 0.9250 0.9250 0.9250 0.9250
2532.554313 0.9249 0.9239 0.9230 0.9230 0.9230
2539.580079 0.9230 0.9230 0.9230 0.9230 0.9230
2546.605845 0.9230 0.9230 0.9230 0.9230 0.9230
2553.631611 0.9230 0.9230 0.9230 0.9230 0.9230
2560.657377 0.9230 0.9230 0.9230 0.9230 0.9229
2567.683143 0.9219 0.9210 0.9210 0.9210 0.9200
2574.708909 0.9190 0.9180 0.9170 0.9160 0.9150
2581.734675 0.9150 0.9150 0.9130 0.9110 0.9095
2588.760441 0.9080 0.9070 0.9060 0.9050 0.9040
2595.786207 0.9040 0.9040 0.9040 0.9040 0.9040
2602.811973 0.9040 0.9030 0.9020 0.9020 0.9020
2609.837739 0.9020 0.9020 0.9020 0.9020 0.9020
2616.863505 0.9020 0.9010 0.9000 0.8990 0.8980
2623.889271 0.8980 0.8980 0.8975 0.8970 0.8970
2630.915037 0.8970 0.8970 0.8970 0.8970 0.8970
2637.940803 0.8970 0.8970 0.8970 0.8970 0.8970
2644.966569 0.8970 0.8961 0.8951 0.8950 0.8950
2651.992335 0.8941 0.8931 0.8930 0.8930 0.8921
2659.018101 0.8911 0.8910 0.8910 0.8901 0.8891
2666.043867 0.8873 0.8853 0.8850 0.8850 0.8850
2673.069633 0.8850 0.8841 0.8831 0.8817 0.8802
2680.095399 0.8800 0.8800 0.8783 0.8763 0.8752
2687.121165 0.8742 0.8740 0.8740 0.8748 0.8758
2694.146931 0.8760 0.8760 0.8760 0.8760 0.8760
2701.172697 0.8760 0.8768 0.8778 0.8788 0.8798
2708.198463 0.8812 0.8827 0.8846 0.8866 0.8878
2715.224229 0.8888 0.8890 0.8890 0.8882 0.8872
2722.249995 0.8862 0.8852 0.8838 0.8823 0.8812
2729.275761 0.8802 0.8777 0.8747 0.8713 0.8678
2736.301527 0.8639 0.8599 0.8563 0.8528 0.8497
2743.327293 0.8467 0.8453 0.8443 0.8418 0.8388
2750.353059 0.8376 0.8371 0.8374 0.8379 0.8402
2757.378825 0.8431 0.8447 0.8457 0.8486 0.8520
2764.404591 0.8566 0.8616 0.8655 0.8690 0.8707
2771.430357 0.8717 0.8727 0.8737 0.8740 0.8740
2778.456123 0.8733 0.8723 0.8713 0.8703 0.8683
2785.481889 0.8658 0.8637 0.8616 0.8596 0.8576
2792.507655 0.8546 0.8511 0.8480 0.8450 0.8420
2799.533421 0.8390 0.8364 0.8339 0.8317 0.8297
2806.559187 0.8268 0.8233 0.8214 0.8204 0.8175
2813.584953 0.8135 0.8107 0.8087 0.8070 0.8055
2820.610719 0.8003 0.7928 0.7875 0.7835 0.7786
2827.636485 0.7731 0.7683 0.7638 0.7551 0.7436
2834.662251 0.7369 0.7334 0.7106 0.6743 0.6492
2841.688017 0.6322 0.6071 0.5757 0.5503 0.5289
2848.713783 0.5075 0.4860 0.4591 0.4283 0.3852
2855.739549 0.3329 0.2912 0.2578 0.2286 0.2027
2862.765315 0.1801 0.1602 0.1418 0.1249 0.1101
2869.791081 0.0971 0.0876 0.0810 0.0761 0.0726
2876.816847 0.0683 0.0633 0.0541 0.0412 0.0350
2883.842613 0.0350 0.0373 0.0418 0.0460 0.0500
2890.868379 0.0525 0.0535 0.0550 0.0570 0.0619
2897.894145 0.0698 0.0832 0.1024 0.1217 0.1411
2904.919911 0.1505 0.1495 0.1447 0.1357 0.1265
2911.945677 0.1170 0.1055 0.0915 0.0780 0.0651
2918.971443 0.0523 0.0399 0.0257 0.0092 0.0000
2925.997209 0.0000 0.0000 0.0000 0.0000 0.0000
2933.022975 0.0000 0.0000 0.0000 0.0000 0.0000
2940.048741 0.0000 0.0000 0.0000 0.0000 0.0000
2947.074507 0.0000 0.0000 0.0000 0.0000 0.0000
2954.100273 0.0000 0.0000 0.0000 0.0000 0.0000
2961.126039 0.0000 0.0000 0.0000 0.0000 0.0000
2968.151805 0.0000 0.0000 0.0000 0.0000 0.0000
2975.177571 0.0000 0.0000 0.0002 0.0007 0.0010
2982.203337 0.0010 0.0017 0.0037 0.0137 0.0381
2989.229103 0.0713 0.1206 0.1614 0.1858 0.2135
2996.254869 0.2479 0.2823 0.3166 0.3646 0.4413
3003.280635 0.5194 0.6006 0.6606 0.6726 0.6844
3010.306401 0.6959 0.7107 0.7340 0.7506 0.7526
3017.332167 0.7557 0.7611 0.7668 0.7728 0.7780
3024.357933 0.7815 0.7851 0.7891 0.7924 0.7939
3031.383699 0.7955 0.7975 0.7993 0.8003 0.8013
3038.409465 0.8022 0.8030 0.8030 0.8033 0.8043
3045.435231 0.8054 0.8069 0.8090 0.8130 0.8165
3052.460997 0.8185 0.8211 0.8255 0.8297 0.8327
3059.486763 0.8355 0.8380 0.8411 0.8460 0.8502
3066.512529 0.8512 0.8521 0.8526 0.8532 0.8542
3073.538295 0.8554 0.8574 0.8594 0.8614 0.8634
3080.564061 0.8654 0.8673 0.8688 0.8704 0.8724
3087.589827 0.8742 0.8752 0.8762 0.8772 0.8780
3094.615593 0.8780 0.8782 0.8792 0.8802 0.8812
3101.641359 0.8820 0.8820 0.8820 0.8820 0.8821
3108.667125 0.8826 0.8830 0.8830 0.8831 0.8841
3115.692891 0.8850 0.8850 0.8851 0.8861 0.8870
3122.718657 0.8870 0.8870 0.8870 0.8870 0.8870
3129.744423 0.8871 0.8881 0.8890 0.8890 0.8890
3136.770189 0.8890 0.8890 0.8890 0.8890 0.8890
3143.795955 0.8890 0.8890 0.8889 0.8879 0.8870
3150.821721 0.8870 0.8870 0.8870 0.8870 0.8870
3157.847487 0.8869 0.8859 0.8850 0.8850 0.8850
3164.873253 0.8850 0.8850 0.8850 0.8850 0.8840
3171.899019 0.8830 0.8830 0.8830 0.8830 0.8830
3178.924785 0.8825 0.8820 0.8810 0.8800 0.8800
3185.950551 0.8800 0.8790 0.8780 0.8780 0.8780
3192.976317 0.8780 0.8780 0.8780 0.8780 0.8790
3200.002083 0.8800 0.8810 0.8820 0.8825 0.8830
3207.027849 0.8849 0.8869 0.8880 0.8890 0.8900
3214.053615 0.8910 0.8920 0.8930 0.8940 0.8950
3221.079381 0.8964 0.8979 0.8999 0.9019 0.9029
3228.105147 0.9039 0.9049 0.9059 0.9060 0.9060
3235.130913 0.9078 0.9098 0.9105 0.9110 0.9119
3242.156679 0.9129 0.9130 0.9130 0.9130 0.9130
3249.182445 0.9139 0.9149 0.9150 0.9150 0.9141
3256.208211 0.9131 0.9130 0.9130 0.9130 0.9130
3263.233977 0.9130 0.9130 0.9130 0.9130 0.9130
3270.259743 0.9130 0.9139 0.9149 0.9150 0.9150
3277.285509 0.9150 0.9150 0.9159 0.9169 0.9170
3284.311275 0.9170 0.9170 0.9170 0.9178 0.9188
3291.337041 0.9190 0.9190 0.9190 0.9190 0.9190
3298.362807 0.9190 0.9190 0.9190 0.9190 0.9190
3305.388573 0.9190 0.9190 0.9190 0.9190 0.9182
3312.414339 0.9172 0.9170 0.9170 0.9170 0.9170
3319.440105 0.9162 0.9152 0.9150 0.9150 0.9150
3326.465871 0.9150 0.9150 0.9150 0.9150 0.9150
3333.491637 0.9150 0.9150 0.9150 0.9150 0.9150
3340.517403 0.9150 0.9150 0.9150 0.9150 0.9150
3347.543169 0.9157 0.9167 0.9170 0.9170 0.9170
3354.568935 0.9170 0.9155 0.9135 0.9119 0.9104
3361.594701 0.9100 0.9100 0.9086 0.9066 0.9060
3368.620467 0.9060 0.9067 0.9077 0.9087 0.9097
3375.646233 0.9103 0.9108 0.9117 0.9127 0.9137
3382.671999 0.9147 0.9150 0.9150 0.9157 0.9167
3389.697765 0.9170 0.9170 0.9170 0.9170 0.9170
3396.723531 0.9170 0.9170 0.9170 0.9170 0.9170
3403.749297 0.9170 0.9170 0.9170 0.9170 0.9170
3410.775063 0.9170 0.9164 0.9154 0.9150 0.9150
3417.800829 0.9150 0.9150 0.9150 0.9150 0.9150
3424.826595 0.9150 0.9150 0.9150 0.9150 0.9150
3431.852361 0.9150 0.9150 0.9150 0.9150 0.9150
3438.878127 0.9150 0.9144 0.9134 0.9130 0.9130
3445.903893 0.9130 0.9130 0.9130 0.9130 0.9130
3452.929659 0.9130 0.9136 0.9146 0.9150 0.9150
3459.955425 0.9150 0.9150 0.9150 0.9150 0.9150
3466.981191 0.9150 0.9150 0.9150 0.9150 0.9150
3474.006957 0.9150 0.9150 0.9150 0.9150 0.9150
3481.032723 0.9150 0.9150 0.9150 0.9150 0.9150
3488.058489 0.9150 0.9150 0.9150 0.9150 0.9150
3495.084255 0.9150 0.9150 0.9150 0.9150 0.9150
3502.110021 0.9155 0.9165 0.9170 0.9170 0.9170
3509.135787 0.9170 0.9170 0.9170 0.9170 0.9170
3516.161553 0.9170 0.9170 0.9170 0.9170 0.9170
3523.187319 0.9170 0.9170 0.9170 0.9170 0.9170
3530.213085 0.9174 0.9184 0.9190 0.9190 0.9190
3537.238851 0.9190 0.9190 0.9190 0.9190 0.9190
3544.264617 0.9190 0.9190 0.9190 0.9190 0.9190
3551.290383 0.9190 0.9190 0.9190 0.9190 0.9190
3558.316149 0.9186 0.9176 0.9170 0.9170 0.9174
3565.341915 0.9184 0.9190 0.9190 0.9190 0.9190
3572.367681 0.9186 0.9176 0.9170 0.9170 0.9170
3579.393448 0.9170 0.9170 0.9170 0.9174 0.9184
3586.419214 0.9190 0.9190 0.9190 0.9190 0.9193
3593.444980 0.9203 0.9210 0.9210 0.9210 0.9210
3600.470746 0.9210 0.9210 0.9210 0.9210 0.9210
3607.496512 0.9210 0.9207 0.9197 0.9190 0.9190
3614.522278 0.9190 0.9190 0.9190 0.9190 0.9187
3621.548044 0.9177 0.9170 0.9170 0.9167 0.9157
3628.573810 0.9150 0.9150 0.9150 0.9150 0.9150
3635.599576 0.9150 0.9150 0.9150 0.9147 0.9137
3642.625342 0.9130 0.9130 0.9130 0.9130 0.9130
3649.651108 0.9130 0.9130 0.9130 0.9128 0.9118
3656.676874 0.9110 0.9110 0.9110 0.9110 0.9110
3663.702640 0.9110 0.9110 0.9110 0.9110 0.9110
3670.728406 0.9110 0.9110 0.9110 0.9110 0.9110
3677.754172 0.9110 0.9110 0.9110 0.9112 0.9122
3684.779938 0.9130 0.9130 0.9130 0.9130 0.9130
3691.805704 0.9130 0.9130 0.9130 0.9132 0.9142
3698.831470 0.9150 0.9150 0.9150 0.9150 0.9150
3705.857236 0.9150 0.9149 0.9139 0.9130 0.9130
3712.883002 0.9131 0.9141 0.9150 0.9150 0.9150
3719.908768 0.9150 0.9150 0.9150 0.9151 0.9161
3726.934534 0.9170 0.9170 0.9170 0.9170 0.9169
3733.960300 0.9159 0.9150 0.9150 0.9150 0.9150
3740.986066 0.9150 0.9150 0.9150 0.9150 0.9150
3748.011832 0.9150 0.9150 0.9150 0.9149 0.9139
3755.037598 0.9130 0.9130 0.9130 0.9130 0.9130
3762.063364 0.9130 0.9130 0.9130 0.9130 0.9120
3769.089130 0.9110 0.9110 0.9110 0.9105 0.9100
3776.114896 0.9100 0.9100 0.9100 0.9100 0.9100
3783.140662 0.9100 0.9105 0.9110 0.9110 0.9110
3790.166428 0.9110 0.9110 0.9110 0.9110 0.9110
3797.192194 0.9110 0.9110 0.9110 0.9105 0.9100
3804.217960 0.9090 0.9080 0.9080 0.9080 0.9080
3811.243726 0.9080 0.9090 0.9100 0.9100 0.9100
3818.269492 0.9100 0.9100 0.9105 0.9110 0.9110
3825.295258 0.9110 0.9119 0.9129 0.9130 0.9130
3832.321024 0.9130 0.9130 0.9130 0.9130 0.9130
3839.346790 0.9130 0.9130 0.9130 0.9139 0.9149
3846.372556 0.9150 0.9150 0.9150 0.9150 0.9150
3853.398322 0.9150 0.9150 0.9150 0.9150 0.9150
3860.424088 0.9141 0.9131 0.9130 0.9130 0.9130
3867.449854 0.9130 0.9130 0.9130 0.9130 0.9130
3874.475620 0.9130 0.9130 0.9130 0.9130 0.9130
3881.501386 0.9130 0.9122 0.9112 0.9110 0.9110
3888.527152 0.9110 0.9110 0.9110 0.9110 0.9110
3895.552918 0.9110 0.9106 0.9101 0.9100 0.9100
3902.578684 0.9100 0.9100 0.9100 0.9100 0.9092
3909.604450 0.9082 0.9080 0.9080 0.9080 0.9080
3916.630216 0.9080 0.9080 0.9080 0.9080 0.9080
3923.655982 0.9080 0.9080 0.9080 0.9088 0.9098
3930.681748 0.9100 0.9100 0.9100 0.9100 0.9100
3937.707514 0.9100 0.9100 0.9100 0.9100 0.9100
3944.733280 0.9100 0.9100 0.9100 0.9100 0.9100
3951.759046 0.9100 0.9100 0.9100 0.9100 0.9100
3958.784812 0.9100 0.9100 0.9100 0.9100 0.9100
3965.810578 0.9100 0.9100 0.9100 0.9093 0.9083
3972.836344 0.9080 0.9080 0.9080 0.9080 0.9073
3979.862110 0.9063
##END=
