##TITLE=1-Hexene
##JCAMP-DX=4.24
##DATA TYPE=INFRARED SPECTRUM
##CLASS=COBLENTZ
##ORIGIN=DOW CHEMICAL COMPANY
##OWNER=Copyright (C) 1987 by the Coblentz Society
Collection (C) 2018 copyright by the U.S. Secretary of Commerce
on behalf of the United States of America. All rights reserved.
##DATE=1964
##CAS REGISTRY NO=592-41-6
##MOLFORM=C6 H12
##SOURCE REFERENCE=COBLENTZ NO. 8871
##$NIST SOURCE=COBLENTZ
##$NIST IMAGE=cob8871
##SPECTROMETER/DATA SYSTEM=DOW KBr FOREPRISM-GRATING
##INSTRUMENT PARAMETERS=GRATING CHANGED AT 5.0, 7.5, 15.0 MICRON
##STATE=GAS (100 mmHg, N2 ADDED, TOTAL PRESSURE 600 mmHg)
##PATH LENGTH=5 CM
##SAMPLING PROCEDURE=TRANSMISSION
##RESOLUTION=2
##DATA PROCESSING=DIGITIZED BY COBLENTZ SOCIETY (BATCH II) FROM HARD COPY
##XUNITS=1/CM
##YUNITS=TRANSMITTANCE
##XFACTOR=1.0
##YFACTOR=1
##FIRSTX=463
##LASTX=3772
##FIRSTY=0.811
##MAXX=3772
##MINX=463
##MAXY=0.883
##MINY=0
##NPOINTS=3310
##XYDATA=(X++(Y..Y))
463.000000 0.8110 0.8119 0.8127 0.8135 0.8143
468.000000 0.8152 0.8160 0.8168 0.8176 0.8181
473.000000 0.8185 0.8190 0.8195 0.8199 0.8204
478.000000 0.8209 0.8214 0.8219 0.8224 0.8229
483.000000 0.8234 0.8275 0.8244 0.8245 0.8246
488.000000 0.8246 0.8247 0.8248 0.8249 0.8250
493.000000 0.8251 0.8250 0.8248 0.8246 0.8244
498.000000 0.8242 0.8240 0.8238 0.8236 0.8234
503.000000 0.8230 0.8226 0.8223 0.8219 0.8215
508.000000 0.8211 0.8208 0.8204 0.8197 0.8188
513.000000 0.8180 0.8172 0.8164 0.8156 0.8148
518.000000 0.8140 0.8132 0.8125 0.8117 0.8110
523.000000 0.8103 0.8095 0.8082 0.8068 0.8054
528.000000 0.8039 0.8025 0.8011 0.7996 0.7982
533.000000 0.7969 0.7958 0.7946 0.7934 0.7923
538.000000 0.7911 0.7899 0.7887 0.7876 0.7864
543.000000 0.7852 0.7841 0.7829 0.7816 0.7803
548.000000 0.7790 0.7777 0.7765 0.7752 0.7739
553.000000 0.7706 0.7729 0.7731 0.7734 0.7745
558.000000 0.7756 0.7766 0.7777 0.7793 0.7810
563.000000 0.7827 0.7844 0.7861 0.7883 0.7906
568.000000 0.7928 0.7951 0.7968 0.7985 0.8001
573.000000 0.8017 0.8034 0.8046 0.8052 0.8057
578.000000 0.8063 0.8069 0.8074 0.8080 0.8086
583.000000 0.8088 0.8090 0.8092 0.8158 0.8097
588.000000 0.8091 0.8086 0.8081 0.8075 0.8070
593.000000 0.8065 0.8058 0.8052 0.8045 0.8034
598.000000 0.8015 0.7997 0.7977 0.7943 0.7909
603.000000 0.7875 0.7838 0.7790 0.7741 0.7691
608.000000 0.7630 0.7570 0.7509 0.7449 0.7388
613.000000 0.7317 0.7241 0.7164 0.7088 0.7017
618.000000 0.6957 0.6898 0.6838 0.6778 0.6718
623.000000 0.6663 0.6610 0.6557 0.6504 0.6423
628.000000 0.6368 0.6322 0.6306 0.6282 0.6279
633.000000 0.6281 0.6282 0.6288 0.6307 0.6328
638.000000 0.6357 0.6388 0.6436 0.6502 0.6592
643.000000 0.6886 0.6995 0.7049 0.7087 0.7111
648.000000 0.7135 0.7159 0.7178 0.7194 0.7210
653.000000 0.7226 0.7244 0.7262 0.7281 0.7299
658.000000 0.7317 0.7332 0.7342 0.7353 0.7354
663.000000 0.7356 0.7317 0.7210 0.7125 0.7118
668.000000 0.7120 0.7159 0.7243 0.7294 0.7273
673.000000 0.7234 0.7197 0.7142 0.7074 0.7046
678.000000 0.7077 0.7119 0.7181 0.7218 0.7234
683.000000 0.7263 0.7280 0.7279 0.7202 0.7043
688.000000 0.6885 0.6855 0.7096 0.7308 0.7299
693.000000 0.7289 0.7276 0.7244 0.7191 0.7139
698.000000 0.7086 0.7033 0.6981 0.6928 0.6893
703.000000 0.6876 0.6866 0.6863 0.6844 0.6860
708.000000 0.6865 0.6882 0.6892 0.6917 0.6959
713.000000 0.7010 0.7068 0.7131 0.7277 0.7337
718.000000 0.7328 0.7308 0.7282 0.7250 0.7259
723.000000 0.7325 0.7373 0.7390 0.7397 0.7401
728.000000 0.7399 0.7392 0.7383 0.7356 0.7335
733.000000 0.7315 0.7294 0.7276 0.7269 0.7266
738.000000 0.7266 0.7276 0.7290 0.7311 0.7331
743.000000 0.7360 0.7392 0.7428 0.7465 0.7501
748.000000 0.7537 0.7582 0.7629 0.7673 0.7714
753.000000 0.7756 0.7792 0.7825 0.7858 0.7887
758.000000 0.7913 0.7939 0.7969 0.8005 0.8048
763.000000 0.8102 0.8141 0.8174 0.8206 0.8225
768.000000 0.8240 0.8253 0.8263 0.8263 0.8262
773.000000 0.8262 0.8260 0.8258 0.8255 0.8223
778.000000 0.8248 0.8245 0.8241 0.8237 0.8233
783.000000 0.8229 0.8225 0.8223 0.8221 0.8219
788.000000 0.8216 0.8215 0.8216 0.8216 0.8217
793.000000 0.8218 0.8220 0.8225 0.8230 0.8235
798.000000 0.8239 0.8244 0.8240 0.8234 0.8229
803.000000 0.8223 0.8217 0.8208 0.8199 0.8190
808.000000 0.8181 0.8169 0.8157 0.8146 0.8135
813.000000 0.8124 0.8114 0.8103 0.8093 0.8083
818.000000 0.8073 0.8063 0.8053 0.8043 0.8034
823.000000 0.8031 0.8027 0.8024 0.8020 0.8020
828.000000 0.8022 0.8023 0.8025 0.8031 0.8039
833.000000 0.8047 0.8055 0.8063 0.8070 0.8078
838.000000 0.8085 0.8091 0.8098 0.8104 0.8108
843.000000 0.8110 0.8113 0.8114 0.8113 0.8113
848.000000 0.8110 0.8107 0.8104 0.8100 0.8094
853.000000 0.8088 0.8083 0.8077 0.8067 0.8056
858.000000 0.8037 0.8018 0.7999 0.7980 0.7961
863.000000 0.7942 0.7912 0.7881 0.7851 0.7821
868.000000 0.7788 0.7750 0.7712 0.7674 0.7630
873.000000 0.7577 0.7525 0.7472 0.7409 0.7344
878.000000 0.7280 0.7207 0.7128 0.7048 0.6968
883.000000 0.6885 0.6803 0.6665 0.6495 0.6354
888.000000 0.6089 0.5888 0.5600 0.5348 0.5134
893.000000 0.4898 0.4662 0.4426 0.4191 0.3955
898.000000 0.3719 0.3483 0.3248 0.3012 0.2776
903.000000 0.2540 0.2305 0.2074 0.1437 0.1260
908.000000 0.1193 0.1142 0.1120 0.1111 0.1104
913.000000 0.1102 0.1104 0.1110 0.1090 0.1152
918.000000 0.1228 0.1452 0.1678 0.1905 0.2131
923.000000 0.2358 0.2584 0.2811 0.3038 0.3264
928.000000 0.3491 0.3717 0.3944 0.4170 0.4397
933.000000 0.4624 0.4850 0.5007 0.5176 0.5394
938.000000 0.5613 0.5824 0.5964 0.6103 0.6198
943.000000 0.6291 0.6384 0.6434 0.6484 0.6495
948.000000 0.6507 0.6507 0.6497 0.6490 0.6474
953.000000 0.6447 0.6406 0.6363 0.6304 0.6230
958.000000 0.6155 0.6084 0.6016 0.5949 0.5891
963.000000 0.5834 0.5776 0.5712 0.5638 0.5565
968.000000 0.5503 0.5455 0.5407 0.5343 0.5316
973.000000 0.5294 0.5265 0.5236 0.5139 0.4980
978.000000 0.4812 0.4690 0.4594 0.4495 0.4367
983.000000 0.4245 0.4130 0.4009 0.3886 0.3812
988.000000 0.3754 0.3705 0.3698 0.3689 0.3691
993.000000 0.3685 0.3697 0.3706 0.3725 0.3747
998.000000 0.3772 0.3797 0.3959 0.4226 0.4493
1003.000000 0.4761 0.5028 0.5249 0.5392 0.5526
1008.000000 0.5664 0.5793 0.5953 0.6107 0.6224
1013.000000 0.6340 0.6455 0.6552 0.6645 0.6738
1018.000000 0.6846 0.6929 0.6975 0.7007 0.7017
1023.000000 0.7026 0.7029 0.7031 0.7035 0.7042
1028.000000 0.7049 0.7055 0.7072 0.7090 0.7107
1033.000000 0.7126 0.7144 0.7163 0.7181 0.7200
1038.000000 0.7218 0.7239 0.7260 0.7282 0.7303
1043.000000 0.7324 0.7347 0.7372 0.7397 0.7422
1048.000000 0.7447 0.7472 0.7512 0.7553 0.7593
1053.000000 0.7633 0.7663 0.7689 0.7715 0.7740
1058.000000 0.7763 0.7787 0.7811 0.7834 0.7859
1063.000000 0.7918 0.7891 0.7883 0.7874 0.7853
1068.000000 0.7825 0.7794 0.7757 0.7717 0.7663
1073.000000 0.7610 0.7556 0.7502 0.7453 0.7422
1078.000000 0.7392 0.7376 0.7376 0.7376 0.7378
1083.000000 0.7383 0.7383 0.7397 0.7413 0.7429
1088.000000 0.7460 0.7496 0.7542 0.7591 0.7636
1093.000000 0.7676 0.7705 0.7730 0.7746 0.7758
1098.000000 0.7764 0.7770 0.7773 0.7776 0.7778
1103.000000 0.7784 0.7798 0.7811 0.7825 0.7838
1108.000000 0.7852 0.7865 0.7879 0.7892 0.7906
1113.000000 0.7920 0.7933 0.7947 0.7960 0.7974
1118.000000 0.7987 0.8001 0.8014 0.8039 0.8059
1123.000000 0.8076 0.8093 0.8109 0.8122 0.8136
1128.000000 0.8140 0.8144 0.8148 0.8151 0.8152
1133.000000 0.8153 0.8154 0.8155 0.8155 0.8155
1138.000000 0.8153 0.8149 0.8145 0.8140 0.8136
1143.000000 0.8134 0.8133 0.8132 0.8132 0.8143
1148.000000 0.8159 0.8177 0.8185 0.8194 0.8203
1153.000000 0.8214 0.8225 0.8222 0.8218 0.8213
1158.000000 0.8208 0.8202 0.8196 0.8189 0.8183
1163.000000 0.8174 0.8165 0.8156 0.8147 0.8138
1168.000000 0.8130 0.8123 0.8116 0.8109 0.8102
1173.000000 0.8096 0.8090 0.8084 0.8078 0.8073
1178.000000 0.8074 0.8080 0.8086 0.8102 0.8133
1183.000000 0.8168 0.8214 0.8251 0.8286 0.8319
1188.000000 0.8352 0.8379 0.8408 0.8437 0.8454
1193.000000 0.8471 0.8486 0.8478 0.8489 0.8489
1198.000000 0.8489 0.8489 0.8482 0.8472 0.8463
1203.000000 0.8453 0.8443 0.8431 0.8418 0.8405
1208.000000 0.8387 0.8368 0.8349 0.8330 0.8309
1213.000000 0.8287 0.8265 0.8243 0.8223 0.8210
1218.000000 0.8198 0.8189 0.8184 0.8180 0.8179
1223.000000 0.8184 0.8190 0.8195 0.8200 0.8203
1228.000000 0.8207 0.8210 0.8212 0.8214 0.8216
1233.000000 0.8216 0.8213 0.8207 0.8201 0.8191
1238.000000 0.8174 0.8157 0.8138 0.8119 0.8099
1243.000000 0.8076 0.8052 0.8029 0.8008 0.7988
1248.000000 0.7969 0.7959 0.7948 0.7943 0.7942
1253.000000 0.7941 0.7946 0.7952 0.7957 0.7966
1258.000000 0.7981 0.7996 0.8011 0.8034 0.8056
1263.000000 0.8081 0.8090 0.8089 0.8084 0.8079
1268.000000 0.8071 0.8061 0.8052 0.8042 0.8034
1273.000000 0.8027 0.8020 0.8013 0.8005 0.7996
1278.000000 0.7987 0.7977 0.7967 0.7958 0.7938
1283.000000 0.7918 0.7885 0.7852 0.7819 0.7791
1288.000000 0.7763 0.7735 0.7707 0.7674 0.7640
1293.000000 0.7607 0.7572 0.7534 0.7506 0.7485
1298.000000 0.7486 0.7489 0.7493 0.7496 0.7502
1303.000000 0.7509 0.7515 0.7521 0.7527 0.7533
1308.000000 0.7541 0.7565 0.7586 0.7614 0.7644
1313.000000 0.7667 0.7690 0.7712 0.7726 0.7737
1318.000000 0.7738 0.7757 0.7756 0.7754 0.7752
1323.000000 0.7750 0.7745 0.7728 0.7711 0.7691
1328.000000 0.7670 0.7649 0.7629 0.7606 0.7577
1333.000000 0.7548 0.7519 0.7489 0.7440 0.7397
1338.000000 0.7364 0.7330 0.7297 0.7263 0.7204
1343.000000 0.7136 0.7068 0.7022 0.6985 0.6945
1348.000000 0.6896 0.6847 0.6798 0.6736 0.6674
1353.000000 0.6611 0.6548 0.6484 0.6417 0.6351
1358.000000 0.6285 0.6232 0.6179 0.6114 0.6036
1363.000000 0.5959 0.5883 0.5808 0.5734 0.5659
1368.000000 0.5584 0.5500 0.5417 0.5333 0.5255
1373.000000 0.5186 0.5118 0.5049 0.4979 0.4928
1378.000000 0.4903 0.4898 0.4880 0.4906 0.4925
1383.000000 0.4946 0.4963 0.4982 0.5005 0.5030
1388.000000 0.5072 0.5122 0.5204 0.5353 0.5502
1393.000000 0.5650 0.5799 0.5948 0.6096 0.6245
1398.000000 0.6393 0.6490 0.6632 0.6699 0.6745
1403.000000 0.6777 0.6791 0.6797 0.6835 0.6793
1408.000000 0.6787 0.6776 0.6760 0.6742 0.6720
1413.000000 0.6692 0.6664 0.6638 0.6614 0.6592
1418.000000 0.6578 0.6564 0.6532 0.6501 0.6466
1423.000000 0.6424 0.6374 0.6324 0.6254 0.6149
1428.000000 0.6044 0.5939 0.5834 0.5729 0.5624
1433.000000 0.5518 0.5413 0.5308 0.5203 0.5098
1438.000000 0.4993 0.4888 0.4783 0.4678 0.4575
1443.000000 0.4496 0.4427 0.4352 0.4256 0.4164
1448.000000 0.4081 0.3972 0.3762 0.3580 0.3460
1453.000000 0.3369 0.3286 0.3216 0.3153 0.3145
1458.000000 0.3141 0.3144 0.3145 0.3149 0.3152
1463.000000 0.3162 0.3178 0.3202 0.3235 0.3281
1468.000000 0.3343 0.3446 0.3515 0.3628 0.3914
1473.000000 0.4129 0.4261 0.4419 0.4577 0.4735
1478.000000 0.4894 0.5052 0.5210 0.5368 0.5527
1483.000000 0.5685 0.5843 0.6001 0.6159 0.6318
1488.000000 0.6458 0.6552 0.6656 0.6764 0.6910
1493.000000 0.7047 0.7165 0.7284 0.7403 0.7502
1498.000000 0.7591 0.7677 0.7761 0.7814 0.7863
1503.000000 0.7912 0.7951 0.7990 0.8029 0.8063
1508.000000 0.8098 0.8128 0.8155 0.8181 0.8193
1513.000000 0.8203 0.8210 0.8217 0.8224 0.8226
1518.000000 0.8226 0.8224 0.8221 0.8219 0.8216
1523.000000 0.8213 0.8210 0.8206 0.8203 0.8199
1528.000000 0.8195 0.8192 0.8188 0.8182 0.8176
1533.000000 0.8169 0.8158 0.8145 0.8133 0.8120
1538.000000 0.8107 0.8094 0.8080 0.8081 0.8095
1543.000000 0.8086 0.8122 0.8134 0.8146 0.8158
1548.000000 0.8169 0.8178 0.8178 0.8178 0.8177
1553.000000 0.8176 0.8175 0.8173 0.8171 0.8168
1558.000000 0.8168 0.8176 0.8208 0.8246 0.8284
1563.000000 0.8301 0.8312 0.8318 0.8323 0.8328
1568.000000 0.8332 0.8335 0.8338 0.8348 0.8360
1573.000000 0.8358 0.8347 0.8337 0.8326 0.8317
1578.000000 0.8308 0.8297 0.8286 0.8276 0.8265
1583.000000 0.8254 0.8240 0.8226 0.8212 0.8191
1588.000000 0.8168 0.8145 0.8122 0.8101 0.8082
1593.000000 0.8063 0.8043 0.8037 0.8031 0.8023
1598.000000 0.8014 0.7992 0.7964 0.7932 0.7900
1603.000000 0.7874 0.7849 0.7828 0.7812 0.7796
1608.000000 0.7779 0.7763 0.7742 0.7720 0.7694
1613.000000 0.7663 0.7633 0.7602 0.7570 0.7533
1618.000000 0.7496 0.7459 0.7420 0.7364 0.7308
1623.000000 0.7252 0.7188 0.7117 0.7046 0.6965
1628.000000 0.6844 0.6721 0.6598 0.6427 0.6262
1633.000000 0.6111 0.5846 0.5581 0.5316 0.5050
1638.000000 0.4785 0.4520 0.4255 0.3990 0.3802
1643.000000 0.3792 0.3783 0.3774 0.3757 0.3732
1648.000000 0.3701 0.3668 0.3634 0.3622 0.3615
1653.000000 0.3789 0.4210 0.4630 0.5050 0.5470
1658.000000 0.5891 0.6404 0.6537 0.6701 0.6815
1663.000000 0.7056 0.7368 0.7543 0.7601 0.7668
1668.000000 0.7734 0.7800 0.7867 0.7933 0.7969
1673.000000 0.7997 0.8021 0.8044 0.8066 0.8088
1678.000000 0.8102 0.8108 0.8115 0.8115 0.8113
1683.000000 0.8111 0.8109 0.8156 0.8207 0.8236
1688.000000 0.8301 0.8284 0.8302 0.8303 0.8299
1693.000000 0.8295 0.8290 0.8285 0.8275 0.8265
1698.000000 0.8255 0.8246 0.8240 0.8245 0.8250
1703.000000 0.8256 0.8262 0.8269 0.8269 0.8269
1708.000000 0.8267 0.8263 0.8259 0.8252 0.8246
1713.000000 0.8239 0.8223 0.8204 0.8184 0.8162
1718.000000 0.8139 0.8116 0.8110 0.8118 0.8129
1723.000000 0.8135 0.8139 0.8138 0.8134 0.8128
1728.000000 0.8120 0.8111 0.8103 0.8095 0.8074
1733.000000 0.8050 0.8025 0.8000 0.7974 0.7949
1738.000000 0.7927 0.7904 0.7883 0.7871 0.7860
1743.000000 0.7849 0.7838 0.7826 0.7841 0.7820
1748.000000 0.7824 0.7831 0.7839 0.7862 0.7895
1753.000000 0.7933 0.7973 0.8018 0.8059 0.8098
1758.000000 0.8132 0.8156 0.8179 0.8201 0.8217
1763.000000 0.8233 0.8249 0.8257 0.8265 0.8273
1768.000000 0.8282 0.8289 0.8295 0.8302 0.8330
1773.000000 0.8359 0.8399 0.8405 0.8410 0.8416
1778.000000 0.8417 0.8417 0.8408 0.8398 0.8388
1783.000000 0.8376 0.8358 0.8342 0.8333 0.8327
1788.000000 0.8324 0.8325 0.8326 0.8328 0.8329
1793.000000 0.8330 0.8331 0.8328 0.8324 0.8321
1798.000000 0.8317 0.8313 0.8308 0.8302 0.8295
1803.000000 0.8289 0.8281 0.8269 0.8258 0.8247
1808.000000 0.8236 0.8172 0.8096 0.8019 0.7943
1813.000000 0.7867 0.7790 0.7714 0.7638 0.7561
1818.000000 0.7485 0.7409 0.7332 0.7213 0.7181
1823.000000 0.7149 0.7119 0.7099 0.7079 0.7055
1828.000000 0.7062 0.7073 0.7088 0.7121 0.7161
1833.000000 0.7232 0.7310 0.7389 0.7468 0.7547
1838.000000 0.7625 0.7704 0.7783 0.7862 0.7941
1843.000000 0.8004 0.8054 0.8105 0.8140 0.8175
1848.000000 0.8209 0.8244 0.8275 0.8300 0.8324
1853.000000 0.8341 0.8357 0.8371 0.8382 0.8393
1858.000000 0.8404 0.8413 0.8423 0.8433 0.8442
1863.000000 0.8448 0.8453 0.8459 0.8464 0.8469
1868.000000 0.8474 0.8478 0.8482 0.8487 0.8492
1873.000000 0.8497 0.8502 0.8507 0.8512 0.8517
1878.000000 0.8522 0.8527 0.8530 0.8531 0.8533
1883.000000 0.8535 0.8536 0.8538 0.8539 0.8541
1888.000000 0.8543 0.8545 0.8547 0.8549 0.8551
1893.000000 0.8554 0.8556 0.8558 0.8559 0.8560
1898.000000 0.8560 0.8561 0.8562 0.8563 0.8564
1903.000000 0.8564 0.8565 0.8565 0.8565 0.8564
1908.000000 0.8564 0.8564 0.8564 0.8563 0.8563
1913.000000 0.8563 0.8563 0.8562 0.8562 0.8562
1918.000000 0.8562 0.8561 0.8561 0.8561 0.8561
1923.000000 0.8560 0.8560 0.8560 0.8560 0.8559
1928.000000 0.8558 0.8557 0.8555 0.8554 0.8552
1933.000000 0.8550 0.8549 0.8547 0.8545 0.8544
1938.000000 0.8542 0.8540 0.8539 0.8537 0.8535
1943.000000 0.8585 0.8531 0.8529 0.8527 0.8525
1948.000000 0.8523 0.8521 0.8520 0.8518 0.8517
1953.000000 0.8515 0.8514 0.8512 0.8510 0.8509
1958.000000 0.8507 0.8505 0.8502 0.8500 0.8497
1963.000000 0.8494 0.8491 0.8489 0.8484 0.8476
1968.000000 0.8467 0.8458 0.8448 0.8435 0.8422
1973.000000 0.8412 0.8411 0.8410 0.8408 0.8407
1978.000000 0.8406 0.8404 0.8403 0.8401 0.8401
1983.000000 0.8406 0.8411 0.8416 0.8421 0.8426
1988.000000 0.8431 0.8439 0.8448 0.8456 0.8465
1993.000000 0.8473 0.8481 0.8489 0.8495 0.8501
1998.000000 0.8507 0.8513 0.8519 0.8524 0.8530
2003.000000 0.8533 0.8536 0.8539 0.8542 0.8545
2008.000000 0.8548 0.8551 0.8555 0.8560 0.8566
2013.000000 0.8571 0.8577 0.8582 0.8587 0.8587
2018.000000 0.8587 0.8587 0.8587 0.8587 0.8587
2023.000000 0.8587 0.8587 0.8587 0.8587 0.8586
2028.000000 0.8586 0.8584 0.8583 0.8582 0.8581
2033.000000 0.8580 0.8579 0.8577 0.8576 0.8576
2038.000000 0.8576 0.8577 0.8579 0.8581 0.8583
2043.000000 0.8584 0.8586 0.8587 0.8589 0.8591
2048.000000 0.8593 0.8595 0.8597 0.8599 0.8602
2053.000000 0.8604 0.8607 0.8609 0.8612 0.8613
2058.000000 0.8614 0.8615 0.8616 0.8617 0.8618
2063.000000 0.8619 0.8620 0.8620 0.8621 0.8622
2068.000000 0.8623 0.8624 0.8625 0.8626 0.8627
2073.000000 0.8628 0.8629 0.8630 0.8631 0.8631
2078.000000 0.8632 0.8633 0.8634 0.8635 0.8636
2083.000000 0.8637 0.8638 0.8639 0.8640 0.8641
2088.000000 0.8642 0.8642 0.8643 0.8644 0.8645
2093.000000 0.8646 0.8647 0.8647 0.8648 0.8648
2098.000000 0.8649 0.8649 0.8650 0.8650 0.8651
2103.000000 0.8652 0.8653 0.8653 0.8654 0.8654
2108.000000 0.8655 0.8655 0.8656 0.8656 0.8657
2113.000000 0.8658 0.8659 0.8659 0.8660 0.8660
2118.000000 0.8661 0.8661 0.8662 0.8662 0.8663
2123.000000 0.8663 0.8663 0.8662 0.8661 0.8660
2128.000000 0.8659 0.8658 0.8657 0.8656 0.8656
2133.000000 0.8655 0.8654 0.8653 0.8652 0.8651
2138.000000 0.8650 0.8649 0.8648 0.8647 0.8646
2143.000000 0.8645 0.8645 0.8644 0.8643 0.8642
2148.000000 0.8641 0.8640 0.8639 0.8638 0.8637
2153.000000 0.8636 0.8635 0.8634 0.8634 0.8633
2158.000000 0.8632 0.8631 0.8630 0.8629 0.8628
2163.000000 0.8627 0.8626 0.8625 0.8625 0.8623
2168.000000 0.8622 0.8620 0.8619 0.8617 0.8616
2173.000000 0.8614 0.8613 0.8611 0.8610 0.8608
2178.000000 0.8607 0.8605 0.8604 0.8602 0.8601
2183.000000 0.8599 0.8598 0.8596 0.8595 0.8593
2188.000000 0.8592 0.8590 0.8589 0.8587 0.8586
2193.000000 0.8584 0.8582 0.8580 0.8579 0.8577
2198.000000 0.8576 0.8574 0.8573 0.8571 0.8570
2203.000000 0.8568 0.8567 0.8565 0.8564 0.8563
2208.000000 0.8563 0.8562 0.8561 0.8560 0.8560
2213.000000 0.8559 0.8559 0.8558 0.8557 0.8556
2218.000000 0.8556 0.8555 0.8555 0.8554 0.8554
2223.000000 0.8553 0.8552 0.8552 0.8553 0.8555
2228.000000 0.8558 0.8560 0.8563 0.8565 0.8568
2233.000000 0.8570 0.8573 0.8575 0.8578 0.8580
2238.000000 0.8583 0.8585 0.8588 0.8590 0.8593
2243.000000 0.8595 0.8598 0.8598 0.8599 0.8597
2248.000000 0.8595 0.8593 0.8591 0.8589 0.8587
2253.000000 0.8585 0.8583 0.8581 0.8580 0.8579
2258.000000 0.8578 0.8577 0.8576 0.8575 0.8574
2263.000000 0.8573 0.8572 0.8571 0.8570 0.8569
2268.000000 0.8568 0.8567 0.8566 0.8565 0.8565
2273.000000 0.8564 0.8564 0.8563 0.8563 0.8562
2278.000000 0.8562 0.8561 0.8561 0.8560 0.8560
2283.000000 0.8559 0.8559 0.8558 0.8558 0.8558
2288.000000 0.8558 0.8557 0.8557 0.8556 0.8556
2293.000000 0.8556 0.8556 0.8556 0.8556 0.8556
2298.000000 0.8556 0.8556 0.8556 0.8556 0.8556
2303.000000 0.8556 0.8556 0.8556 0.8556 0.8556
2308.000000 0.8556 0.8556 0.8556 0.8556 0.8556
2313.000000 0.8556 0.8557 0.8558 0.8559 0.8559
2318.000000 0.8560 0.8561 0.8562 0.8563 0.8564
2323.000000 0.8565 0.8566 0.8567 0.8568 0.8569
2328.000000 0.8570 0.8571 0.8572 0.8573 0.8574
2333.000000 0.8574 0.8575 0.8576 0.8577 0.8578
2338.000000 0.8579 0.8580 0.8581 0.8581 0.8581
2343.000000 0.8581 0.8581 0.8581 0.8581 0.8581
2348.000000 0.8581 0.8581 0.8581 0.8581 0.8581
2353.000000 0.8581 0.8581 0.8581 0.8581 0.8581
2358.000000 0.8581 0.8581 0.8581 0.8580 0.8580
2363.000000 0.8580 0.8580 0.8580 0.8580 0.8580
2368.000000 0.8580 0.8580 0.8581 0.8582 0.8583
2373.000000 0.8584 0.8585 0.8586 0.8587 0.8587
2378.000000 0.8588 0.8589 0.8590 0.8591 0.8592
2383.000000 0.8592 0.8593 0.8594 0.8595 0.8596
2388.000000 0.8597 0.8598 0.8599 0.8600 0.8601
2393.000000 0.8602 0.8603 0.8604 0.8605 0.8606
2398.000000 0.8608 0.8609 0.8610 0.8611 0.8612
2403.000000 0.8613 0.8614 0.8615 0.8617 0.8618
2408.000000 0.8619 0.8620 0.8621 0.8622 0.8623
2413.000000 0.8624 0.8626 0.8627 0.8628 0.8629
2418.000000 0.8630 0.8631 0.8632 0.8633 0.8635
2423.000000 0.8636 0.8637 0.8638 0.8639 0.8640
2428.000000 0.8641 0.8642 0.8644 0.8645 0.8646
2433.000000 0.8647 0.8648 0.8649 0.8650 0.8651
2438.000000 0.8652 0.8653 0.8655 0.8656 0.8657
2443.000000 0.8658 0.8659 0.8660 0.8661 0.8662
2448.000000 0.8664 0.8665 0.8666 0.8667 0.8669
2453.000000 0.8670 0.8671 0.8672 0.8674 0.8675
2458.000000 0.8677 0.8678 0.8680 0.8681 0.8682
2463.000000 0.8683 0.8685 0.8686 0.8688 0.8689
2468.000000 0.8691 0.8692 0.8694 0.8695 0.8697
2473.000000 0.8698 0.8700 0.8701 0.8703 0.8704
2478.000000 0.8706 0.8707 0.8709 0.8710 0.8712
2483.000000 0.8713 0.8715 0.8716 0.8718 0.8719
2488.000000 0.8721 0.8722 0.8724 0.8725 0.8727
2493.000000 0.8728 0.8730 0.8731 0.8733 0.8733
2498.000000 0.8733 0.8733 0.8733 0.8731 0.8729
2503.000000 0.8726 0.8724 0.8721 0.8719 0.8716
2508.000000 0.8713 0.8710 0.8708 0.8705 0.8703
2513.000000 0.8700 0.8698 0.8695 0.8693 0.8690
2518.000000 0.8687 0.8684 0.8682 0.8679 0.8676
2523.000000 0.8673 0.8671 0.8668 0.8665 0.8662
2528.000000 0.8660 0.8657 0.8654 0.8651 0.8649
2533.000000 0.8646 0.8643 0.8640 0.8638 0.8635
2538.000000 0.8632 0.8629 0.8626 0.8623 0.8621
2543.000000 0.8618 0.8615 0.8612 0.8610 0.8607
2548.000000 0.8604 0.8600 0.8597 0.8594 0.8591
2553.000000 0.8588 0.8585 0.8582 0.8579 0.8576
2558.000000 0.8573 0.8570 0.8567 0.8564 0.8561
2563.000000 0.8558 0.8555 0.8551 0.8548 0.8545
2568.000000 0.8542 0.8538 0.8535 0.8532 0.8529
2573.000000 0.8526 0.8523 0.8520 0.8517 0.8514
2578.000000 0.8511 0.8508 0.8506 0.8503 0.8500
2583.000000 0.8497 0.8494 0.8491 0.8488 0.8485
2588.000000 0.8482 0.8480 0.8478 0.8478 0.8478
2593.000000 0.8478 0.8478 0.8478 0.8478 0.8478
2598.000000 0.8478 0.8478 0.8478 0.8477 0.8477
2603.000000 0.8476 0.8476 0.8475 0.8475 0.8474
2608.000000 0.8474 0.8474 0.8474 0.8472 0.8471
2613.000000 0.8470 0.8469 0.8467 0.8466 0.8465
2618.000000 0.8464 0.8462 0.8461 0.8458 0.8456
2623.000000 0.8454 0.8452 0.8449 0.8447 0.8445
2628.000000 0.8443 0.8440 0.8438 0.8436 0.8434
2633.000000 0.8429 0.8424 0.8419 0.8414 0.8409
2638.000000 0.8405 0.8400 0.8395 0.8390 0.8385
2643.000000 0.8380 0.8375 0.8370 0.8365 0.8359
2648.000000 0.8353 0.8346 0.8340 0.8334 0.8328
2653.000000 0.8322 0.8316 0.8310 0.8304 0.8298
2658.000000 0.8292 0.8286 0.8280 0.8274 0.8268
2663.000000 0.8262 0.8256 0.8250 0.8244 0.8238
2668.000000 0.8232 0.8226 0.8220 0.8214 0.8209
2673.000000 0.8203 0.8197 0.8196 0.8220 0.8195
2678.000000 0.8195 0.8194 0.8194 0.8194 0.8194
2683.000000 0.8193 0.8193 0.8194 0.8196 0.8198
2688.000000 0.8201 0.8204 0.8207 0.8209 0.8212
2693.000000 0.8215 0.8219 0.8224 0.8229 0.8234
2698.000000 0.8240 0.8247 0.8255 0.8262 0.8270
2703.000000 0.8277 0.8284 0.8285 0.8287 0.8287
2708.000000 0.8287 0.8284 0.8282 0.8279 0.8307
2713.000000 0.8273 0.8269 0.8264 0.8259 0.8254
2718.000000 0.8249 0.8241 0.8233 0.8224 0.8215
2723.000000 0.8203 0.8192 0.8180 0.8169 0.8153
2728.000000 0.8137 0.8118 0.8100 0.8077 0.8055
2733.000000 0.8029 0.8004 0.7969 0.7935 0.7892
2738.000000 0.7850 0.7836 0.7822 0.7812 0.7804
2743.000000 0.7800 0.7798 0.7799 0.7800 0.7803
2748.000000 0.7806 0.7816 0.7826 0.7857 0.7889
2753.000000 0.7915 0.7941 0.7975 0.8010 0.8023
2758.000000 0.8037 0.8049 0.8061 0.8066 0.8066
2763.000000 0.8074 0.8076 0.8075 0.8074 0.8070
2768.000000 0.8066 0.8059 0.8053 0.8047 0.8042
2773.000000 0.8036 0.8030 0.8023 0.8016 0.8006
2778.000000 0.7997 0.7987 0.7977 0.7968 0.7960
2783.000000 0.7952 0.7944 0.7936 0.7928 0.7920
2788.000000 0.7912 0.7904 0.7897 0.7889 0.7881
2793.000000 0.7873 0.7866 0.7855 0.7845 0.7834
2798.000000 0.7823 0.7812 0.7801 0.7787 0.7773
2803.000000 0.7755 0.7737 0.7714 0.7691 0.7663
2808.000000 0.7636 0.7608 0.7580 0.7549 0.7519
2813.000000 0.7488 0.7457 0.7425 0.7393 0.7361
2818.000000 0.7330 0.7292 0.7254 0.7214 0.7174
2823.000000 0.7133 0.7093 0.6972 0.6852 0.6713
2828.000000 0.6574 0.6144 0.5715 0.5628 0.5542
2833.000000 0.5437 0.5332 0.5160 0.4989 0.4803
2838.000000 0.4618 0.4433 0.4248 0.4063 0.3878
2843.000000 0.3692 0.3507 0.3322 0.3137 0.2951
2848.000000 0.2766 0.2581 0.2396 0.2211 0.2026
2853.000000 0.1840 0.1655 0.1338 0.1021 0.0920
2858.000000 0.0820 0.0737 0.0654 0.0629 0.0605
2863.000000 0.0580 0.0556 0.0533 0.0510 0.0491
2868.000000 0.0473 0.0455 0.0437 0.0423 0.0407
2873.000000 0.0408 0.0407 0.0410 0.0414 0.0419
2878.000000 0.0424 0.0439 0.0455 0.0482 0.0509
2883.000000 0.0532 0.0556 0.0583 0.0610 0.0633
2888.000000 0.0656 0.0677 0.0698 0.0717 0.0736
2893.000000 0.0750 0.0792 0.0765 0.0765 0.0764
2898.000000 0.0763 0.0760 0.0758 0.0752 0.0747
2903.000000 0.0718 0.0689 0.0641 0.0593 0.0545
2908.000000 0.0498 0.0435 0.0373 0.0324 0.0275
2913.000000 0.0228 0.0181 0.0128 0.0075 0.0066
2918.000000 0.0058 0.0049 0.0041 0.0032 0.0023
2923.000000 0.0014 0.0006 0.0003 0.0000 0.0000
2928.000000 0.0000 0.0000 0.0000 0.0000 0.0000
2933.000000 0.0000 0.0000 0.0000 0.0000 0.0000
2938.000000 0.0000 0.0000 0.0000 0.0000 0.0000
2943.000000 0.0000 0.0000 0.0000 0.0000 0.0000
2948.000000 0.0001 0.0000 0.0000 0.0000 0.0001
2953.000000 0.0001 0.0001 0.0001 0.0001 0.0001
2958.000000 0.0001 0.0001 0.0001 0.0001 0.0001
2963.000000 0.0001 0.0001 0.0001 0.0001 0.0002
2968.000000 0.0003 0.0008 0.0013 0.0018 0.0023
2973.000000 0.0028 0.0034 0.0049 0.0065 0.0084
2978.000000 0.0103 0.0175 0.0248 0.0347 0.0447
2983.000000 0.0504 0.0562 0.0597 0.0633 0.0668
2988.000000 0.0704 0.0765 0.0826 0.0959 0.1093
2993.000000 0.1579 0.2065 0.2169 0.2274 0.2371
2998.000000 0.2469 0.2565 0.2661 0.2757 0.2854
3003.000000 0.2950 0.3047 0.3143 0.3239 0.3335
3008.000000 0.3432 0.3528 0.3624 0.3720 0.3817
3013.000000 0.3913 0.4010 0.4106 0.4202 0.4298
3018.000000 0.4395 0.4491 0.4587 0.4683 0.4780
3023.000000 0.4876 0.4973 0.5069 0.5165 0.5261
3028.000000 0.5358 0.5410 0.5462 0.5521 0.5581
3033.000000 0.5631 0.5681 0.5699 0.5717 0.5725
3038.000000 0.5734 0.5733 0.5732 0.5730 0.5726
3043.000000 0.5726 0.5724 0.5713 0.5703 0.5607
3048.000000 0.5512 0.5416 0.5321 0.5225 0.5130
3053.000000 0.5034 0.4939 0.4843 0.4748 0.4652
3058.000000 0.4557 0.4461 0.4366 0.4270 0.4175
3063.000000 0.4079 0.3984 0.3888 0.3793 0.3697
3068.000000 0.3601 0.3505 0.3410 0.3314 0.3219
3073.000000 0.3123 0.3028 0.2932 0.2837 0.2741
3078.000000 0.2646 0.2550 0.2455 0.2398 0.2342
3083.000000 0.2344 0.2346 0.2350 0.2347 0.2422
3088.000000 0.2489 0.2527 0.2566 0.2592 0.2618
3093.000000 0.2640 0.2662 0.2689 0.2717 0.3158
3098.000000 0.3599 0.4087 0.4575 0.5062 0.5550
3103.000000 0.6038 0.6526 0.6963 0.7401 0.7446
3108.000000 0.7491 0.7527 0.7563 0.7600 0.7637
3113.000000 0.7683 0.7730 0.7777 0.7824 0.7857
3118.000000 0.7890 0.7917 0.7945 0.7971 0.7998
3123.000000 0.8020 0.8043 0.8065 0.8087 0.8103
3128.000000 0.8120 0.8130 0.8141 0.8151 0.8162
3133.000000 0.8166 0.8170 0.8174 0.8179 0.8183
3138.000000 0.8187 0.8190 0.8194 0.8196 0.8199
3143.000000 0.8201 0.8204 0.8206 0.8209 0.8211
3148.000000 0.8214 0.8216 0.8218 0.8220 0.8223
3153.000000 0.8225 0.8228 0.8230 0.8232 0.8234
3158.000000 0.8236 0.8238 0.8240 0.8242 0.8244
3163.000000 0.8246 0.8248 0.8250 0.8252 0.8254
3168.000000 0.8257 0.8259 0.8262 0.8264 0.8267
3173.000000 0.8270 0.8273 0.8275 0.8278 0.8280
3178.000000 0.8283 0.8285 0.8287 0.8289 0.8292
3183.000000 0.8294 0.8296 0.8298 0.8301 0.8304
3188.000000 0.8307 0.8310 0.8313 0.8316 0.8320
3193.000000 0.8323 0.8327 0.8330 0.8334 0.8338
3198.000000 0.8343 0.8349 0.8355 0.8361 0.8367
3203.000000 0.8375 0.8383 0.8391 0.8400 0.8408
3208.000000 0.8416 0.8424 0.8433 0.8441 0.8450
3213.000000 0.8458 0.8466 0.8474 0.8482 0.8490
3218.000000 0.8498 0.8506 0.8515 0.8523 0.8531
3223.000000 0.8539 0.8547 0.8554 0.8562 0.8569
3228.000000 0.8577 0.8584 0.8592 0.8601 0.8610
3233.000000 0.8618 0.8627 0.8634 0.8642 0.8646
3238.000000 0.8651 0.8655 0.8659 0.8659 0.8659
3243.000000 0.8659 0.8659 0.8659 0.8659 0.8659
3248.000000 0.8659 0.8659 0.8659 0.8659 0.8660
3253.000000 0.8660 0.8660 0.8660 0.8661 0.8661
3258.000000 0.8661 0.8661 0.8662 0.8662 0.8662
3263.000000 0.8662 0.8662 0.8662 0.8662 0.8662
3268.000000 0.8662 0.8662 0.8662 0.8662 0.8662
3273.000000 0.8662 0.8662 0.8662 0.8662 0.8662
3278.000000 0.8662 0.8662 0.8662 0.8662 0.8662
3283.000000 0.8663 0.8664 0.8667 0.8670 0.8672
3288.000000 0.8675 0.8677 0.8680 0.8682 0.8685
3293.000000 0.8687 0.8690 0.8692 0.8695 0.8697
3298.000000 0.8700 0.8702 0.8705 0.8707 0.8709
3303.000000 0.8711 0.8714 0.8716 0.8719 0.8721
3308.000000 0.8724 0.8726 0.8728 0.8729 0.8731
3313.000000 0.8731 0.8732 0.8733 0.8734 0.8735
3318.000000 0.8736 0.8736 0.8737 0.8738 0.8739
3323.000000 0.8739 0.8740 0.8741 0.8742 0.8743
3328.000000 0.8744 0.8744 0.8745 0.8746 0.8747
3333.000000 0.8748 0.8749 0.8750 0.8751 0.8751
3338.000000 0.8752 0.8753 0.8754 0.8755 0.8756
3343.000000 0.8755 0.8755 0.8755 0.8755 0.8755
3348.000000 0.8755 0.8755 0.8755 0.8755 0.8755
3353.000000 0.8755 0.8755 0.8755 0.8755 0.8755
3358.000000 0.8755 0.8755 0.8755 0.8755 0.8756
3363.000000 0.8757 0.8758 0.8758 0.8759 0.8759
3368.000000 0.8760 0.8760 0.8761 0.8761 0.8762
3373.000000 0.8762 0.8763 0.8763 0.8764 0.8764
3378.000000 0.8765 0.8765 0.8766 0.8766 0.8766
3383.000000 0.8766 0.8766 0.8766 0.8766 0.8766
3388.000000 0.8766 0.8766 0.8767 0.8767 0.8767
3393.000000 0.8767 0.8767 0.8767 0.8767 0.8767
3398.000000 0.8767 0.8767 0.8768 0.8768 0.8768
3403.000000 0.8768 0.8768 0.8768 0.8768 0.8767
3408.000000 0.8767 0.8766 0.8765 0.8764 0.8763
3413.000000 0.8762 0.8761 0.8760 0.8759 0.8758
3418.000000 0.8757 0.8756 0.8755 0.8753 0.8752
3423.000000 0.8751 0.8750 0.8749 0.8748 0.8748
3428.000000 0.8749 0.8749 0.8750 0.8750 0.8751
3433.000000 0.8751 0.8752 0.8753 0.8754 0.8754
3438.000000 0.8755 0.8755 0.8756 0.8756 0.8757
3443.000000 0.8757 0.8758 0.8759 0.8760 0.8764
3448.000000 0.8769 0.8773 0.8778 0.8782 0.8787
3453.000000 0.8791 0.8796 0.8798 0.8801 0.8803
3458.000000 0.8806 0.8808 0.8811 0.8813 0.8816
3463.000000 0.8818 0.8820 0.8820 0.8820 0.8820
3468.000000 0.8821 0.8821 0.8821 0.8821 0.8816
3473.000000 0.8822 0.8822 0.8822 0.8823 0.8823
3478.000000 0.8823 0.8823 0.8824 0.8824 0.8825
3483.000000 0.8825 0.8826 0.8826 0.8826 0.8826
3488.000000 0.8827 0.8827 0.8828 0.8828 0.8829
3493.000000 0.8829 0.8830 0.8830 0.8830 0.8830
3498.000000 0.8830 0.8829 0.8829 0.8829 0.8829
3503.000000 0.8829 0.8829 0.8828 0.8828 0.8828
3508.000000 0.8828 0.8827 0.8827 0.8827 0.8827
3513.000000 0.8827 0.8827 0.8826 0.8826 0.8826
3518.000000 0.8826 0.8826 0.8826 0.8825 0.8825
3523.000000 0.8825 0.8825 0.8825 0.8825 0.8824
3528.000000 0.8824 0.8824 0.8824 0.8824 0.8824
3533.000000 0.8823 0.8823 0.8823 0.8823 0.8823
3538.000000 0.8823 0.8822 0.8822 0.8822 0.8822
3543.000000 0.8822 0.8822 0.8821 0.8821 0.8821
3548.000000 0.8821 0.8820 0.8820 0.8820 0.8820
3553.000000 0.8819 0.8818 0.8817 0.8816 0.8814
3558.000000 0.8813 0.8812 0.8811 0.8809 0.8808
3563.000000 0.8807 0.8806 0.8805 0.8804 0.8802
3568.000000 0.8801 0.8800 0.8799 0.8797 0.8796
3573.000000 0.8795 0.8794 0.8792 0.8791 0.8790
3578.000000 0.8789 0.8787 0.8786 0.8784 0.8783
3583.000000 0.8781 0.8780 0.8778 0.8777 0.8775
3588.000000 0.8774 0.8772 0.8771 0.8769 0.8768
3593.000000 0.8766 0.8765 0.8763 0.8762 0.8760
3598.000000 0.8759 0.8757 0.8756 0.8754 0.8753
3603.000000 0.8751 0.8750 0.8748 0.8747 0.8745
3608.000000 0.8744 0.8743 0.8742 0.8740 0.8739
3613.000000 0.8737 0.8736 0.8734 0.8733 0.8731
3618.000000 0.8730 0.8729 0.8728 0.8728 0.8728
3623.000000 0.8728 0.8728 0.8727 0.8727 0.8727
3628.000000 0.8727 0.8726 0.8726 0.8726 0.8726
3633.000000 0.8725 0.8725 0.8725 0.8725 0.8725
3638.000000 0.8725 0.8724 0.8724 0.8724 0.8724
3643.000000 0.8723 0.8723 0.8722 0.8722 0.8721
3648.000000 0.8721 0.8720 0.8720 0.8719 0.8719
3653.000000 0.8718 0.8718 0.8717 0.8717 0.8716
3658.000000 0.8716 0.8715 0.8715 0.8714 0.8713
3663.000000 0.8712 0.8712 0.8711 0.8711 0.8711
3668.000000 0.8711 0.8711 0.8711 0.8711 0.8712
3673.000000 0.8712 0.8712 0.8712 0.8712 0.8712
3678.000000 0.8712 0.8712 0.8713 0.8713 0.8713
3683.000000 0.8713 0.8713 0.8713 0.8713 0.8713
3688.000000 0.8714 0.8714 0.8714 0.8715 0.8716
3693.000000 0.8717 0.8718 0.8718 0.8719 0.8720
3698.000000 0.8721 0.8722 0.8723 0.8723 0.8724
3703.000000 0.8725 0.8726 0.8727 0.8728 0.8728
3708.000000 0.8729 0.8730 0.8731 0.8731 0.8732
3713.000000 0.8733 0.8734 0.8734 0.8735 0.8735
3718.000000 0.8736 0.8736 0.8737 0.8737 0.8738
3723.000000 0.8738 0.8739 0.8740 0.8741 0.8741
3728.000000 0.8742 0.8742 0.8743 0.8743 0.8744
3733.000000 0.8744 0.8744 0.8744 0.8745 0.8745
3738.000000 0.8745 0.8745 0.8746 0.8746 0.8746
3743.000000 0.8748 0.8750 0.8752 0.8755 0.8757
3748.000000 0.8759 0.8761 0.8763 0.8764 0.8766
3753.000000 0.8766 0.8766 0.8766 0.8767 0.8767
3758.000000 0.8768 0.8768 0.8769 0.8767 0.8765
3763.000000 0.8763 0.8761 0.8759 0.8757 0.8755
3768.000000 0.8753 0.8751 0.8749 0.8747 0.8745
##END=
