##TITLE=ACETYLENE
##JCAMP-DX=4.24
##DATA TYPE=INFRARED SPECTRUM
##CLASS=COBLENTZ
##ORIGIN=DOW CHEMICAL COMPANY
##OWNER=COBLENTZ SOCIETY
Collection (C) 2018 copyright by the U.S. Secretary of Commerce
on behalf of the United States of America. All rights reserved.
##DATE=1964
##CAS REGISTRY NO=74-86-2
##MOLFORM=C2 H2
##SOURCE REFERENCE=COBLENTZ NO. 8860
##$NIST SOURCE=COBLENTZ
##$NIST IMAGE=cob8860
##SPECTROMETER/DATA SYSTEM=DOW KBr FOREPRISM
##INSTRUMENT PARAMETERS=GRATING CHANGED AT 5.0, 7.5, 15.0 MICRON
##STATE=GAS (50 mmHg DILUTED TO A TOTAL PRESSURE OF 600 mmHg WITH N2)
##PATH LENGTH=5 CM
##SAMPLING PROCEDURE=TRANSMISSION
##RESOLUTION=4
##DATA PROCESSING=DIGITIZED BY NIST FROM HARD COPY (FROM TWO SEGMENTS)
##XUNITS=1/CM
##YUNITS=TRANSMITTANCE
##XFACTOR=1.000000
##YFACTOR=1
##DELTAX=0.938677
##FIRSTX=453.066
##LASTX=3788.18
##FIRSTY=1.011
##MAXX=3788.18
##MINX=453.066
##MAXY=1.075
##MINY=0.004
##NPOINTS=3554
##XYDATA=(X++(Y..Y))
453.066000 1.0110 1.0110 1.0110 1.0110 1.0110
457.759383 1.0110 1.0110 1.0120 1.0120 1.0120
462.452765 1.0120 1.0140 1.0150 1.0150 1.0170
467.146148 1.0170 1.0180 1.0180 1.0200 1.0200
471.839531 1.0230 1.0240 1.0240 1.0270 1.0280
476.532914 1.0300 1.0310 1.0330 1.0330 1.0330
481.226296 1.0340 1.0370 1.0380 1.0400 1.0410
485.919679 1.0430 1.0440 1.0460 1.0460 1.0460
490.613062 1.0470 1.0470 1.0470 1.0470 1.0470
495.306445 1.0470 1.0490 1.0500 1.0510 1.0510
499.999827 1.0510 1.0510 1.0510 1.0510 1.0510
504.693210 1.0530 1.0530 1.0530 1.0540 1.0540
509.386593 1.0540 1.0540 1.0540 1.0540 1.0560
514.079975 1.0560 1.0560 1.0570 1.0570 1.0570
518.773358 1.0590 1.0590 1.0590 1.0590 1.0590
523.466741 1.0590 1.0590 1.0590 1.0590 1.0590
528.160124 1.0590 1.0570 1.0570 1.0560 1.0540
532.853506 1.0540 1.0530 1.0510 1.0510 1.0500
537.546889 1.0500 1.0490 1.0490 1.0470 1.0460
542.240272 1.0460 1.0440 1.0430 1.0430 1.0410
546.933654 1.0400 1.0400 1.0400 1.0400 1.0380
551.627037 1.0380 1.0380 1.0380 1.0380 1.0380
556.320420 1.0380 1.0380 1.0400 1.0400 1.0410
561.013803 1.0410 1.0410 1.0410 1.0430 1.0430
565.707185 1.0440 1.0440 1.0440 1.0440 1.0460
570.400568 1.0460 1.0460 1.0460 1.0470 1.0490
575.093951 1.0490 1.0500 1.0510 1.0510 1.0540
579.787334 1.0560 1.0560 1.0570 1.0570 1.0590
584.480716 1.0590 1.0600 1.0600 1.0600 1.0620
589.174099 1.0600 1.0600 1.0600 1.0600 1.0600
593.867482 1.0600 1.0620 1.0630 1.0600 1.0590
598.560864 1.0590 1.0590 1.0570 1.0570 1.0620
603.254247 1.0600 1.0590 1.0590 1.0590 1.0590
607.947630 1.0620 1.0620 1.0600 1.0590 1.0570
612.641013 1.0570 1.0570 1.0560 1.0560 1.0560
617.334395 1.0560 1.0560 1.0560 1.0570 1.0600
622.027778 1.0600 1.0570 1.0470 1.0470 1.0570
626.721161 1.0590 1.0560 1.0530 1.0510 1.0530
631.414544 1.0560 1.0570 1.0590 1.0590 1.0590
636.107926 1.0600 1.0630 1.0630 1.0570 1.0570
640.801309 1.0600 1.0600 1.0600 1.0620 1.0630
645.494692 1.0630 1.0630 1.0620 1.0620 1.0620
650.188074 1.0600 1.0570 1.0530 1.0470 1.0530
654.881457 1.0530 1.0530 1.0490 1.0410 1.0380
659.574840 1.0380 1.0370 1.0210 1.0050 1.0050
664.268223 1.0280 1.0270 1.0081 0.9871 0.9631
668.961605 1.0270 1.0750 1.0280 1.0080 0.9880
673.654988 0.9651 0.9550 0.8185 0.8130 0.7612
678.348371 0.9780 0.9450 0.8101 0.6762 0.9265
683.041754 0.9090 0.8522 0.8381 0.7086 0.6075
687.735136 0.8580 0.8390 0.7571 0.5384 0.5350
692.428519 0.5380 0.7851 0.5888 0.4715 0.4710
697.121902 0.6159 0.5611 0.7729 0.7730 0.3916
701.815284 0.3910 0.4798 0.7661 0.3905 0.3890
706.508667 0.4642 0.7630 0.7790 0.4284 0.3791
711.202050 0.3790 0.4498 0.6682 0.7566 0.3907
715.895433 0.5200 0.5770 0.4841 0.3602 0.3600
720.588815 0.7849 0.5099 0.5120 0.6126 0.8120
725.282198 0.8130 0.7840 0.7720 0.7111 0.1403
729.975581 0.1051 0.0701 0.0043 0.0040 0.2348
734.668963 0.3912 0.5450 0.5930 0.6819 0.4304
739.362346 0.3731 0.3171 0.3170 0.4216 0.6769
744.055729 0.2883 0.6830 0.6820 0.3783 0.3730
748.749112 0.2722 0.2720 0.6906 0.6342 0.2707
753.442494 0.2692 0.6340 0.6960 0.6321 0.2757
758.135877 0.2750 0.6309 0.7217 0.7220 0.3031
762.829260 0.3000 0.3540 0.7526 0.4794 0.4790
767.522643 0.3474 0.3470 0.5432 0.7909 0.4060
772.216025 0.4042 0.6081 0.8350 0.8420 0.8480
776.909408 0.4777 0.4770 0.6913 0.8903 0.9159
781.602791 0.5592 0.7410 0.9259 0.9300 0.9460
786.296173 0.9460 0.6508 0.8314 0.9446 0.9500
790.989556 0.7401 0.8490 0.8600 0.9589 0.9780
795.682939 0.9780 0.8235 0.9316 0.9748 0.9790
800.376322 0.9419 0.8941 0.9790 0.9530 0.9530
805.069704 0.9780 0.9840 0.9840 0.9780 0.9780
809.763087 0.9820 0.9870 0.9920 0.9940 0.9920
814.456470 0.9920 0.9970 0.9980 0.9980 0.9980
819.149853 1.0000 1.0000 1.0000 1.0000 1.0000
823.843235 1.0000 1.0000 1.0010 1.0010 1.0010
828.536618 1.0010 1.0010 1.0020 1.0020 1.0020
833.230001 1.0020 1.0020 1.0010 1.0010 1.0010
837.923383 1.0010 1.0010 1.0010 1.0010 1.0010
842.616766 1.0020 1.0020 1.0020 1.0020 1.0020
847.310149 1.0040 1.0040 1.0040 1.0040 1.0040
852.003532 1.0040 1.0040 1.0040 1.0040 1.0040
856.696914 1.0040 1.0040 1.0040 1.0040 1.0040
861.390297 1.0040 1.0040 1.0040 1.0040 1.0040
866.083680 1.0040 1.0040 1.0040 1.0040 1.0040
870.777063 1.0040 1.0040 1.0040 1.0040 1.0040
875.470445 1.0040 1.0040 1.0050 1.0020 1.0040
880.163828 1.0040 1.0040 1.0040 1.0040 1.0040
884.857211 1.0040 1.0040 1.0040 1.0040 1.0040
889.550593 1.0040 1.0040 1.0040 1.0040 1.0040
894.243976 1.0040 1.0040 1.0040 1.0040 1.0040
898.937359 1.0040 1.0040 1.0040 1.0040 1.0040
903.630742 1.0040 1.0040 1.0040 1.0040 1.0040
908.324124 1.0040 1.0040 1.0040 1.0040 1.0040
913.017507 1.0040 1.0040 1.0040 1.0040 1.0040
917.710890 1.0040 1.0040 1.0040 1.0040 1.0040
922.404272 1.0040 1.0040 1.0040 1.0050 1.0050
927.097655 1.0070 1.0070 1.0070 1.0080 1.0080
931.791038 1.0080 1.0080 1.0080 1.0080 1.0080
936.484421 1.0100 1.0100 1.0100 1.0110 1.0110
941.177803 1.0100 1.0100 1.0100 1.0100 1.0100
945.871186 1.0100 1.0100 1.0100 1.0100 1.0100
950.564569 1.0100 1.0100 1.0100 1.0100 1.0100
955.257952 1.0100 1.0100 1.0100 1.0100 1.0100
959.951334 1.0110 1.0110 1.0110 1.0100 1.0100
964.644717 1.0100 1.0100 1.0100 1.0100 1.0100
969.338100 1.0100 1.0100 1.0100 1.0100 1.0100
974.031482 1.0100 1.0100 1.0100 1.0100 1.0100
978.724865 1.0100 1.0100 1.0100 1.0100 1.0100
983.418248 1.0100 1.0100 1.0100 1.0100 1.0100
988.111631 1.0100 1.0100 1.0100 1.0100 1.0100
992.805013 1.0100 1.0100 1.0100 1.0100 1.0100
997.498396 1.0100 1.0100 1.0100 1.0100 1.0100
1002.191779 1.0100 1.0100 1.0100 1.0100 1.0100
1006.885162 1.0100 1.0100 1.0100 1.0110 1.0110
1011.578544 1.0110 1.0110 1.0110 1.0110 1.0110
1016.271927 1.0120 1.0140 1.0140 1.0140 1.0150
1020.965310 1.0150 1.0150 1.0150 1.0150 1.0150
1025.658692 1.0150 1.0150 1.0150 1.0150 1.0150
1030.352075 1.0150 1.0150 1.0150 1.0150 1.0150
1035.045458 1.0150 1.0140 1.0140 1.0140 1.0140
1039.738841 1.0140 1.0120 1.0120 1.0120 1.0120
1044.432223 1.0120 1.0120 1.0120 1.0120 1.0120
1049.125606 1.0120 1.0110 1.0110 1.0120 1.0120
1053.818989 1.0120 1.0120 1.0120 1.0120 1.0120
1058.512372 1.0120 1.0120 1.0110 1.0110 1.0110
1063.205754 1.0110 1.0110 1.0110 1.0110 1.0100
1067.899137 1.0100 1.0100 1.0100 1.0100 1.0080
1072.592520 1.0070 1.0070 1.0050 1.0070 1.0070
1077.285902 1.0070 1.0070 1.0070 1.0070 1.0080
1081.979285 1.0100 1.0100 1.0100 1.0100 1.0100
1086.672668 1.0100 1.0100 1.0100 1.0100 1.0100
1091.366051 1.0100 1.0100 1.0100 1.0100 1.0100
1096.059433 1.0080 1.0080 1.0080 1.0080 1.0100
1100.752816 1.0100 1.0080 1.0080 1.0080 1.0070
1105.446199 1.0070 1.0070 1.0070 1.0070 1.0070
1110.139581 1.0100 1.0110 1.0110 1.0110 1.0110
1114.832964 1.0110 1.0120 1.0120 1.0120 1.0120
1119.526347 1.0120 1.0120 1.0140 1.0140 1.0140
1124.219730 1.0140 1.0120 1.0120 1.0120 1.0120
1128.913112 1.0120 1.0120 1.0110 1.0110 1.0110
1133.606495 1.0100 1.0110 1.0110 1.0100 1.0100
1138.299878 1.0080 1.0070 1.0070 1.0070 1.0070
1142.993261 1.0080 1.0080 1.0100 1.0110 1.0110
1147.686643 1.0100 1.0100 1.0100 1.0110 1.0110
1152.380026 1.0110 1.0110 1.0120 1.0140 1.0140
1157.073409 1.0140 1.0150 1.0140 1.0140 1.0140
1161.766791 1.0140 1.0140 1.0140 1.0140 1.0140
1166.460174 1.0140 1.0140 1.0120 1.0120 1.0120
1171.153557 1.0110 1.0110 1.0110 1.0110 1.0110
1175.846940 1.0100 1.0100 1.0070 1.0070 1.0010
1180.540322 1.0070 1.0080 1.0100 1.0120 1.0140
1185.233705 1.0140 1.0140 1.0140 1.0140 1.0140
1189.927088 1.0140 1.0140 1.0140 1.0140 1.0140
1194.620471 1.0140 1.0140 1.0140 1.0140 1.0120
1199.313853 1.0120 1.0110 1.0110 1.0120 1.0120
1204.007236 1.0110 1.0110 1.0110 1.0110 1.0120
1208.700619 1.0120 1.0140 1.0140 1.0150 1.0150
1213.394001 1.0140 1.0140 1.0140 1.0120 1.0120
1218.087384 1.0120 1.0140 1.0150 1.0170 1.0170
1222.780767 1.0170 1.0170 1.0170 1.0170 1.0180
1227.474150 1.0170 1.0170 1.0170 1.0170 1.0170
1232.167532 1.0170 1.0180 1.0180 1.0200 1.0180
1236.860915 1.0170 1.0150 1.0150 1.0140 1.0140
1241.554298 1.0140 1.0120 1.0110 1.0100 1.0100
1246.247680 1.0100 1.0110 1.0100 1.0110 1.0110
1250.941063 1.0080 1.0080 1.0080 1.0080 1.0070
1255.634446 1.0070 1.0050 1.0010 1.0010 1.0010
1260.327829 1.0000 0.9980 0.9970 0.9970 0.9920
1265.021211 0.9920 0.9940 0.9940 0.9890 0.9870
1269.714594 0.9840 0.9810 0.9710 0.9680 0.9650
1274.407977 0.9660 0.9680 0.9680 0.9530 0.9480
1279.101360 0.9480 0.9460 0.9330 0.9190 0.9090
1283.794742 0.9260 0.9270 0.8981 0.8800 0.8800
1288.488125 0.9000 0.9000 0.8750 0.8610 0.8510
1293.181508 0.8750 0.8750 0.8231 0.8230 0.8509
1297.874890 0.8509 0.8320 0.8220 0.8080 0.8000
1302.568273 0.8180 0.8030 0.7930 0.7930 0.8249
1307.261656 0.8249 0.7920 0.7860 0.7861 0.8380
1311.955039 0.8380 0.8030 0.7950 0.8190 0.8380
1316.648421 0.8580 0.8579 0.8280 0.8280 0.8600
1321.341804 0.8780 0.8650 0.8750 0.8810 0.9189
1326.035187 0.9320 0.9350 0.9390 0.9420 0.9450
1330.728570 0.9490 0.9590 0.9490 0.9111 0.8980
1335.421952 0.8810 0.8800 0.8780 0.8939 0.8410
1340.115335 0.8970 0.6861 0.7959 0.8998 0.9000
1344.808718 0.7726 0.6390 0.6394 0.8780 0.8839
1349.502100 0.6400 0.6360 0.6030 0.6000 0.8743
1354.195483 0.8744 0.6290 0.6292 0.7571 0.8740
1358.888866 0.8740 0.8800 0.6454 0.7597 0.8278
1363.582249 0.8830 0.8904 0.6765 0.8930 0.8930
1368.275631 0.8940 0.8940 0.7071 0.8957 0.9100
1372.969014 0.9096 0.7949 0.7441 0.7951 0.8341
1377.662397 0.9140 0.9140 0.8641 0.8061 0.8679
1382.355780 0.9100 0.9099 0.8781 0.9130 0.9140
1387.049162 0.9130 0.9130 0.9230 0.9260 0.9320
1391.742545 0.9350 0.9400 0.9450 0.9560 0.9590
1396.435928 0.9610 0.9620 0.9620 0.9620 0.9620
1401.129310 0.9630 0.9630 0.9630 0.9650 0.9650
1405.822693 0.9650 0.9660 0.9660 0.9660 0.9680
1410.516076 0.9680 0.9680 0.9690 0.9690 0.9690
1415.209459 0.9710 0.9710 0.9710 0.9710 0.9710
1419.902841 0.9710 0.9710 0.9710 0.9720 0.9720
1424.596224 0.9720 0.9720 0.9720 0.9720 0.9720
1429.289607 0.9720 0.9740 0.9740 0.9740 0.9740
1433.982989 0.9740 0.9740 0.9740 0.9740 0.9740
1438.676372 0.9740 0.9740 0.9720 0.9720 0.9720
1443.369755 0.9720 0.9720 0.9720 0.9720 0.9720
1448.063138 0.9720 0.9720 0.9720 0.9720 0.9720
1452.756520 0.9720 0.9720 0.9720 0.9720 0.9720
1457.449903 0.9720 0.9710 0.9710 0.9710 0.9710
1462.143286 0.9710 0.9710 0.9710 0.9710 0.9690
1466.836669 0.9690 0.9690 0.9690 0.9690 0.9690
1471.530051 0.9690 0.9690 0.9680 0.9680 0.9680
1476.223434 0.9680 0.9680 0.9680 0.9680 0.9680
1480.916817 0.9660 0.9660 0.9660 0.9660 0.9660
1485.610199 0.9660 0.9660 0.9650 0.9660 0.9660
1490.303582 0.9680 0.9680 0.9680 0.9690 0.9690
1494.996965 0.9690 0.9710 0.9710 0.9710 0.9720
1499.690348 0.9720 0.9720 0.9740 0.9740 0.9740
1504.383730 0.9750 0.9750 0.9750 0.9760 0.9760
1509.077113 0.9760 0.9760 0.9760 0.9760 0.9760
1513.770496 0.9760 0.9760 0.9780 0.9780 0.9780
1518.463879 0.9780 0.9780 0.9760 0.9760 0.9760
1523.157261 0.9760 0.9750 0.9750 0.9750 0.9750
1527.850644 0.9740 0.9740 0.9740 0.9740 0.9720
1532.544027 0.9720 0.9720 0.9720 0.9720 0.9720
1537.237409 0.9720 0.9720 0.9720 0.9710 0.9710
1541.930792 0.9710 0.9710 0.9690 0.9690 0.9690
1546.624175 0.9690 0.9680 0.9680 0.9680 0.9680
1551.317558 0.9680 0.9680 0.9660 0.9660 0.9660
1556.010940 0.9660 0.9660 0.9660 0.9650 0.9650
1560.704323 0.9650 0.9650 0.9650 0.9650 0.9630
1565.397706 0.9630 0.9630 0.9630 0.9630 0.9630
1570.091089 0.9620 0.9620 0.9620 0.9620 0.9620
1574.784471 0.9620 0.9610 0.9610 0.9610 0.9610
1579.477854 0.9610 0.9610 0.9590 0.9590 0.9590
1584.171237 0.9580 0.9580 0.9580 0.9580 0.9560
1588.864619 0.9560 0.9560 0.9560 0.9560 0.9560
1593.558002 0.9560 0.9560 0.9560 0.9560 0.9560
1598.251385 0.9560 0.9560 0.9560 0.9560 0.9560
1602.944768 0.9560 0.9560 0.9560 0.9560 0.9560
1607.638150 0.9560 0.9560 0.9560 0.9560 0.9560
1612.331533 0.9560 0.9560 0.9560 0.9560 0.9560
1617.024916 0.9560 0.9560 0.9580 0.9580 0.9580
1621.718298 0.9580 0.9580 0.9580 0.9580 0.9580
1626.411681 0.9580 0.9580 0.9590 0.9590 0.9590
1631.105064 0.9590 0.9590 0.9590 0.9590 0.9590
1635.798447 0.9590 0.9610 0.9610 0.9610 0.9610
1640.491829 0.9610 0.9610 0.9610 0.9610 0.9610
1645.185212 0.9620 0.9620 0.9620 0.9620 0.9620
1649.878595 0.9620 0.9630 0.9630 0.9630 0.9630
1654.571978 0.9630 0.9630 0.9650 0.9650 0.9650
1659.265360 0.9650 0.9650 0.9650 0.9660 0.9660
1663.958743 0.9660 0.9660 0.9660 0.9680 0.9680
1668.652126 0.9680 0.9680 0.9680 0.9680 0.9680
1673.345508 0.9680 0.9690 0.9690 0.9690 0.9690
1678.038891 0.9690 0.9690 0.9690 0.9690 0.9690
1682.732274 0.9690 0.9690 0.9690 0.9690 0.9680
1687.425657 0.9680 0.9680 0.9680 0.9680 0.9680
1692.119039 0.9680 0.9680 0.9660 0.9660 0.9660
1696.812422 0.9660 0.9660 0.9660 0.9660 0.9660
1701.505805 0.9650 0.9650 0.9650 0.9650 0.9650
1706.199188 0.9650 0.9650 0.9650 0.9630 0.9630
1710.892570 0.9630 0.9630 0.9630 0.9630 0.9630
1715.585953 0.9630 0.9620 0.9620 0.9620 0.9620
1720.279336 0.9620 0.9620 0.9620 0.9610 0.9610
1724.972718 0.9610 0.9610 0.9610 0.9610 0.9610
1729.666101 0.9610 0.9610 0.9590 0.9590 0.9590
1734.359484 0.9590 0.9590 0.9590 0.9590 0.9590
1739.052867 0.9590 0.9580 0.9580 0.9580 0.9580
1743.746249 0.9580 0.9580 0.9580 0.9580 0.9580
1748.439632 0.9580 0.9580 0.9580 0.9580 0.9580
1753.133015 0.9580 0.9580 0.9580 0.9590 0.9590
1757.826398 0.9590 0.9590 0.9590 0.9590 0.9590
1762.519780 0.9590 0.9590 0.9590 0.9590 0.9590
1767.213163 0.9590 0.9590 0.9590 0.9590 0.9590
1771.906546 0.9590 0.9590 0.9590 0.9590 0.9590
1776.599928 0.9590 0.9590 0.9590 0.9590 0.9590
1781.293311 0.9590 0.9590 0.9590 0.9590 0.9590
1785.986694 0.9590 0.9590 0.9590 0.9590 0.9590
1790.680077 0.9590 0.9590 0.9590 0.9590 0.9590
1795.373459 0.9590 0.9590 0.9590 0.9590 0.9590
1800.066842 0.9590 0.9590 0.9590 0.9590 0.9590
1804.760225 0.9590 0.9590 0.9590 0.9590 0.9590
1809.453607 0.9590 0.9590 0.9590 0.9590 0.9590
1814.146990 0.9590 0.9590 0.9590 0.9590 0.9590
1818.840373 0.9590 0.9590 0.9590 0.9590 0.9590
1823.533756 0.9590 0.9590 0.9590 0.9590 0.9590
1828.227138 0.9590 0.9590 0.9590 0.9590 0.9590
1832.920521 0.9590 0.9590 0.9590 0.9590 0.9590
1837.613904 0.9590 0.9590 0.9590 0.9590 0.9590
1842.307287 0.9590 0.9590 0.9590 0.9590 0.9590
1847.000669 0.9590 0.9590 0.9590 0.9590 0.9590
1851.694052 0.9590 0.9590 0.9590 0.9590 0.9590
1856.387435 0.9590 0.9590 0.9590 0.9590 0.9590
1861.080817 0.9590 0.9590 0.9590 0.9590 0.9590
1865.774200 0.9580 0.9580 0.9580 0.9580 0.9580
1870.467583 0.9580 0.9580 0.9580 0.9580 0.9580
1875.160966 0.9580 0.9580 0.9580 0.9580 0.9580
1879.854348 0.9580 0.9580 0.9580 0.9560 0.9560
1884.547731 0.9560 0.9560 0.9560 0.9560 0.9560
1889.241114 0.9560 0.9560 0.9560 0.9560 0.9560
1893.934497 0.9560 0.9560 0.9560 0.9560 0.9560
1898.627879 0.9560 0.9560 0.9560 0.9560 0.9560
1903.321262 0.9560 0.9560 0.9560 0.9560 0.9560
1908.014645 0.9560 0.9560 0.9560 0.9560 0.9560
1912.708027 0.9560 0.9560 0.9560 0.9560 0.9560
1917.401410 0.9560 0.9560 0.9560 0.9560 0.9560
1922.094793 0.9560 0.9560 0.9560 0.9560 0.9560
1926.788176 0.9560 0.9560 0.9560 0.9560 0.9560
1931.481558 0.9560 0.9560 0.9560 0.9560 0.9560
1936.174941 0.9560 0.9560 0.9560 0.9560 0.9560
1940.868324 0.9560 0.9560 0.9560 0.9560 0.9560
1945.561706 0.9560 0.9560 0.9560 0.9560 0.9560
1950.255089 0.9560 0.9560 0.9560 0.9560 0.9560
1954.948472 0.9560 0.9560 0.9560 0.9560 0.9560
1959.641855 0.9560 0.9560 0.9560 0.9560 0.9560
1964.335237 0.9560 0.9560 0.9560 0.9560 0.9560
1969.028620 0.9560 0.9560 0.9560 0.9560 0.9560
1973.722003 0.9560 0.9560 0.9560 0.9560 0.9580
1978.415386 0.9580 0.9580 0.9580 0.9580 0.9580
1983.108768 0.9580 0.9580 0.9580 0.9580 0.9580
1987.802151 0.9580 0.9580 0.9580 0.9580 0.9580
1992.495534 0.9590 0.9590 0.9590 0.9590 0.9590
1997.188916 0.9590 0.9590 0.9590 0.9590 0.9590
2001.882299 0.9590 0.9585 0.9580 0.9580 0.9580
2006.575682 0.9580 0.9580 0.9580 0.9580 0.9580
2011.269065 0.9580 0.9580 0.9580 0.9580 0.9580
2015.962447 0.9580 0.9580 0.9580 0.9580 0.9570
2020.655830 0.9560 0.9560 0.9560 0.9560 0.9560
2025.349213 0.9560 0.9560 0.9560 0.9560 0.9560
2030.042596 0.9560 0.9560 0.9560 0.9560 0.9560
2034.735978 0.9560 0.9560 0.9560 0.9560 0.9560
2039.429361 0.9560 0.9560 0.9560 0.9560 0.9560
2044.122744 0.9560 0.9560 0.9560 0.9560 0.9560
2048.816126 0.9560 0.9560 0.9560 0.9560 0.9560
2053.509509 0.9560 0.9560 0.9560 0.9560 0.9560
2058.202892 0.9560 0.9560 0.9560 0.9560 0.9560
2062.896275 0.9560 0.9560 0.9560 0.9560 0.9560
2067.589657 0.9560 0.9560 0.9560 0.9560 0.9560
2072.283040 0.9560 0.9560 0.9560 0.9560 0.9560
2076.976423 0.9560 0.9560 0.9560 0.9560 0.9560
2081.669806 0.9560 0.9560 0.9560 0.9560 0.9560
2086.363188 0.9560 0.9560 0.9560 0.9560 0.9560
2091.056571 0.9560 0.9560 0.9560 0.9560 0.9560
2095.749954 0.9560 0.9560 0.9560 0.9560 0.9560
2100.443336 0.9560 0.9560 0.9560 0.9560 0.9560
2105.136719 0.9560 0.9560 0.9560 0.9560 0.9560
2109.830102 0.9560 0.9560 0.9560 0.9560 0.9560
2114.523485 0.9560 0.9560 0.9560 0.9560 0.9560
2119.216867 0.9560 0.9560 0.9560 0.9560 0.9560
2123.910250 0.9560 0.9560 0.9560 0.9560 0.9560
2128.603633 0.9560 0.9560 0.9560 0.9560 0.9560
2133.297015 0.9560 0.9560 0.9560 0.9560 0.9560
2137.990398 0.9560 0.9560 0.9560 0.9560 0.9560
2142.683781 0.9560 0.9560 0.9560 0.9560 0.9560
2147.377164 0.9560 0.9560 0.9560 0.9560 0.9569
2152.070546 0.9579 0.9580 0.9580 0.9580 0.9580
2156.763929 0.9580 0.9580 0.9580 0.9580 0.9580
2161.457312 0.9580 0.9580 0.9580 0.9580 0.9580
2166.150695 0.9580 0.9580 0.9580 0.9580 0.9580
2170.844077 0.9580 0.9580 0.9580 0.9580 0.9580
2175.537460 0.9580 0.9580 0.9580 0.9580 0.9580
2180.230843 0.9580 0.9580 0.9580 0.9580 0.9580
2184.924225 0.9580 0.9580 0.9580 0.9580 0.9580
2189.617608 0.9580 0.9580 0.9580 0.9580 0.9580
2194.310991 0.9580 0.9580 0.9580 0.9580 0.9580
2199.004374 0.9580 0.9584 0.9589 0.9590 0.9590
2203.697756 0.9590 0.9590 0.9590 0.9590 0.9590
2208.391139 0.9590 0.9590 0.9590 0.9590 0.9590
2213.084522 0.9590 0.9590 0.9590 0.9590 0.9590
2217.777905 0.9590 0.9590 0.9590 0.9590 0.9590
2222.471287 0.9590 0.9590 0.9598 0.9608 0.9610
2227.164670 0.9610 0.9610 0.9610 0.9610 0.9610
2231.858053 0.9610 0.9610 0.9610 0.9610 0.9610
2236.551435 0.9610 0.9610 0.9610 0.9610 0.9610
2241.244818 0.9610 0.9610 0.9610 0.9610 0.9610
2245.938201 0.9610 0.9610 0.9610 0.9610 0.9610
2250.631584 0.9610 0.9610 0.9614 0.9619 0.9616
2255.324966 0.9611 0.9610 0.9610 0.9610 0.9610
2260.018349 0.9610 0.9610 0.9610 0.9610 0.9610
2264.711732 0.9610 0.9614 0.9619 0.9620 0.9620
2269.405115 0.9620 0.9620 0.9620 0.9620 0.9620
2274.098497 0.9620 0.9620 0.9620 0.9620 0.9620
2278.791880 0.9620 0.9620 0.9620 0.9620 0.9620
2283.485263 0.9620 0.9620 0.9620 0.9620 0.9620
2288.178645 0.9620 0.9620 0.9620 0.9620 0.9624
2292.872028 0.9629 0.9630 0.9630 0.9637 0.9647
2297.565411 0.9650 0.9650 0.9654 0.9659 0.9660
2302.258794 0.9660 0.9660 0.9660 0.9667 0.9677
2306.952176 0.9684 0.9689 0.9697 0.9707 0.9721
2311.645559 0.9736 0.9747 0.9757 0.9771 0.9786
2316.338942 0.9797 0.9807 0.9814 0.9819 0.9831
2321.032324 0.9846 0.9861 0.9876 0.9891 0.9906
2325.725707 0.9921 0.9936 0.9944 0.9949 0.9961
2330.419090 0.9975 0.9987 0.9997 1.0000 1.0000
2335.112473 1.0004 1.0008 1.0010 1.0010 1.0010
2339.805855 1.0010 1.0007 1.0002 1.0000 1.0000
2344.499238 1.0000 1.0000 0.9993 0.9983 0.9977
2349.192621 0.9972 0.9980 0.9995 1.0003 1.0008
2353.886004 1.0030 1.0060 1.0073 1.0078 1.0087
2358.579386 1.0097 1.0100 1.0100 1.0103 1.0108
2363.272769 1.0107 1.0102 1.0100 1.0100 1.0100
2367.966152 1.0100 1.0080 1.0050 1.0033 1.0023
2372.659534 1.0017 1.0012 1.0000 0.9985 0.9980
2377.352917 0.9980 0.9967 0.9947 0.9874 0.9774
2382.046300 0.9730 0.9715 0.9703 0.9693 0.9687
2386.739683 0.9682 0.9674 0.9664 0.9657 0.9652
2391.433065 0.9640 0.9625 0.9620 0.9620 0.9620
2396.126448 0.9620 0.9620 0.9620 0.9620 0.9620
2400.819831 0.9623 0.9628 0.9630 0.9630 0.9630
2405.513214 0.9630 0.9630 0.9630 0.9636 0.9646
2410.206596 0.9650 0.9650 0.9644 0.9634 0.9630
2414.899979 0.9630 0.9630 0.9630 0.9636 0.9646
2419.593362 0.9650 0.9650 0.9650 0.9650 0.9650
2424.286744 0.9650 0.9650 0.9650 0.9650 0.9650
2428.980127 0.9650 0.9650 0.9650 0.9650 0.9650
2433.673510 0.9650 0.9650 0.9650 0.9650 0.9650
2438.366893 0.9644 0.9634 0.9630 0.9630 0.9630
2443.060275 0.9630 0.9630 0.9630 0.9630 0.9630
2447.753658 0.9630 0.9630 0.9630 0.9630 0.9630
2452.447041 0.9630 0.9630 0.9630 0.9630 0.9630
2457.140424 0.9636 0.9646 0.9650 0.9650 0.9650
2461.833806 0.9650 0.9650 0.9650 0.9650 0.9650
2466.527189 0.9650 0.9650 0.9650 0.9650 0.9650
2471.220572 0.9650 0.9650 0.9650 0.9650 0.9650
2475.913954 0.9650 0.9650 0.9650 0.9650 0.9650
2480.607337 0.9650 0.9650 0.9650 0.9650 0.9650
2485.300720 0.9650 0.9650 0.9650 0.9650 0.9650
2489.994103 0.9650 0.9650 0.9650 0.9650 0.9650
2494.687485 0.9650 0.9650 0.9650 0.9650 0.9650
2499.380868 0.9650 0.9650 0.9650 0.9650 0.9650
2504.074251 0.9650 0.9650 0.9650 0.9650 0.9650
2508.767633 0.9650 0.9650 0.9650 0.9650 0.9650
2513.461016 0.9650 0.9650 0.9653 0.9658 0.9665
2518.154399 0.9675 0.9680 0.9680 0.9680 0.9680
2522.847782 0.9675 0.9665 0.9660 0.9660 0.9665
2527.541164 0.9675 0.9680 0.9680 0.9680 0.9680
2532.234547 0.9675 0.9665 0.9660 0.9660 0.9660
2536.927930 0.9660 0.9660 0.9660 0.9660 0.9660
2541.621313 0.9660 0.9660 0.9660 0.9660 0.9660
2546.314695 0.9660 0.9660 0.9660 0.9660 0.9660
2551.008078 0.9660 0.9660 0.9660 0.9660 0.9660
2555.701461 0.9660 0.9660 0.9660 0.9660 0.9660
2560.394843 0.9660 0.9660 0.9660 0.9660 0.9660
2565.088226 0.9660 0.9660 0.9660 0.9660 0.9660
2569.781609 0.9660 0.9660 0.9665 0.9675 0.9680
2574.474992 0.9680 0.9680 0.9680 0.9682 0.9687
2579.168374 0.9690 0.9690 0.9688 0.9683 0.9680
2583.861757 0.9680 0.9675 0.9665 0.9660 0.9660
2588.555140 0.9658 0.9653 0.9650 0.9650 0.9650
2593.248523 0.9650 0.9652 0.9657 0.9660 0.9660
2597.941905 0.9660 0.9660 0.9660 0.9660 0.9660
2602.635288 0.9660 0.9660 0.9660 0.9660 0.9660
2607.328671 0.9660 0.9660 0.9660 0.9660 0.9660
2612.022053 0.9660 0.9660 0.9660 0.9660 0.9660
2616.715436 0.9660 0.9660 0.9660 0.9660 0.9660
2621.408819 0.9660 0.9660 0.9660 0.9660 0.9660
2626.102202 0.9658 0.9653 0.9650 0.9650 0.9650
2630.795584 0.9650 0.9650 0.9650 0.9650 0.9650
2635.488967 0.9646 0.9636 0.9630 0.9630 0.9630
2640.182350 0.9630 0.9630 0.9630 0.9628 0.9623
2644.875733 0.9620 0.9620 0.9622 0.9627 0.9634
2649.569115 0.9644 0.9652 0.9657 0.9660 0.9660
2654.262498 0.9664 0.9674 0.9676 0.9666 0.9660
2658.955881 0.9660 0.9660 0.9660 0.9658 0.9653
2663.649263 0.9650 0.9650 0.9650 0.9650 0.9650
2668.342646 0.9650 0.9650 0.9650 0.9650 0.9650
2673.036029 0.9650 0.9650 0.9650 0.9650 0.9650
2677.729412 0.9650 0.9650 0.9650 0.9650 0.9650
2682.422794 0.9650 0.9650 0.9650 0.9650 0.9650
2687.116177 0.9650 0.9646 0.9636 0.9630 0.9630
2691.809560 0.9630 0.9630 0.9634 0.9644 0.9650
2696.502942 0.9650 0.9650 0.9650 0.9650 0.9650
2701.196325 0.9650 0.9650 0.9650 0.9650 0.9650
2705.889708 0.9650 0.9650 0.9650 0.9650 0.9650
2710.583091 0.9652 0.9657 0.9660 0.9660 0.9660
2715.276473 0.9660 0.9660 0.9660 0.9660 0.9660
2719.969856 0.9660 0.9660 0.9660 0.9660 0.9660
2724.663239 0.9660 0.9660 0.9660 0.9660 0.9660
2729.356622 0.9660 0.9660 0.9660 0.9660 0.9660
2734.050004 0.9660 0.9660 0.9660 0.9663 0.9673
2738.743387 0.9680 0.9680 0.9682 0.9687 0.9690
2743.436770 0.9690 0.9690 0.9690 0.9688 0.9683
2748.130152 0.9680 0.9680 0.9680 0.9680 0.9680
2752.823535 0.9680 0.9680 0.9680 0.9682 0.9687
2757.516918 0.9690 0.9690 0.9690 0.9690 0.9690
2762.210301 0.9690 0.9690 0.9690 0.9690 0.9690
2766.903683 0.9690 0.9690 0.9688 0.9683 0.9680
2771.597066 0.9680 0.9680 0.9680 0.9680 0.9680
2776.290449 0.9680 0.9680 0.9680 0.9680 0.9682
2780.983832 0.9687 0.9688 0.9684 0.9680 0.9680
2785.677214 0.9680 0.9680 0.9680 0.9680 0.9677
2790.370597 0.9667 0.9660 0.9660 0.9660 0.9660
2795.063980 0.9660 0.9660 0.9660 0.9660 0.9660
2799.757362 0.9660 0.9663 0.9673 0.9680 0.9680
2804.450745 0.9680 0.9680 0.9680 0.9680 0.9680
2809.144128 0.9680 0.9677 0.9667 0.9660 0.9660
2813.837511 0.9660 0.9660 0.9660 0.9660 0.9660
2818.530893 0.9660 0.9660 0.9660 0.9660 0.9660
2823.224276 0.9660 0.9660 0.9663 0.9673 0.9680
2827.917659 0.9680 0.9677 0.9667 0.9660 0.9660
2832.611041 0.9660 0.9660 0.9663 0.9673 0.9680
2837.304424 0.9680 0.9681 0.9686 0.9690 0.9690
2841.997807 0.9690 0.9690 0.9692 0.9703 0.9710
2846.691190 0.9710 0.9710 0.9710 0.9711 0.9716
2851.384572 0.9720 0.9720 0.9719 0.9714 0.9710
2856.077955 0.9710 0.9710 0.9710 0.9710 0.9710
2860.771338 0.9710 0.9710 0.9710 0.9710 0.9710
2865.464721 0.9710 0.9710 0.9710 0.9708 0.9698
2870.158103 0.9692 0.9702 0.9708 0.9698 0.9690
2874.851486 0.9690 0.9690 0.9690 0.9690 0.9690
2879.544869 0.9690 0.9690 0.9692 0.9702 0.9710
2884.238251 0.9710 0.9710 0.9710 0.9710 0.9710
2888.931634 0.9710 0.9710 0.9710 0.9710 0.9710
2893.625017 0.9710 0.9710 0.9710 0.9710 0.9710
2898.318400 0.9710 0.9710 0.9710 0.9710 0.9710
2903.011782 0.9710 0.9710 0.9710 0.9710 0.9710
2907.705165 0.9710 0.9710 0.9710 0.9710 0.9710
2912.398548 0.9710 0.9710 0.9710 0.9710 0.9710
2917.091931 0.9710 0.9710 0.9710 0.9710 0.9710
2921.785313 0.9710 0.9708 0.9698 0.9690 0.9690
2926.478696 0.9689 0.9684 0.9678 0.9668 0.9660
2931.172079 0.9660 0.9660 0.9660 0.9660 0.9660
2935.865461 0.9660 0.9660 0.9660 0.9660 0.9660
2940.558844 0.9660 0.9660 0.9660 0.9662 0.9672
2945.252227 0.9680 0.9680 0.9680 0.9680 0.9680
2949.945610 0.9680 0.9680 0.9680 0.9680 0.9680
2954.638992 0.9680 0.9680 0.9680 0.9680 0.9680
2959.332375 0.9680 0.9680 0.9680 0.9678 0.9669
2964.025758 0.9660 0.9660 0.9661 0.9671 0.9679
2968.719141 0.9669 0.9660 0.9660 0.9660 0.9660
2973.412523 0.9660 0.9660 0.9660 0.9660 0.9660
2978.105906 0.9660 0.9660 0.9660 0.9660 0.9660
2982.799289 0.9660 0.9660 0.9660 0.9660 0.9660
2987.492671 0.9660 0.9660 0.9660 0.9660 0.9660
2992.186054 0.9660 0.9660 0.9660 0.9660 0.9660
2996.879437 0.9660 0.9660 0.9660 0.9661 0.9671
3001.572820 0.9679 0.9669 0.9660 0.9660 0.9660
3006.266202 0.9660 0.9660 0.9660 0.9660 0.9655
3010.959585 0.9650 0.9650 0.9650 0.9650 0.9650
3015.652968 0.9650 0.9650 0.9650 0.9650 0.9650
3020.346350 0.9650 0.9655 0.9660 0.9660 0.9660
3025.039733 0.9660 0.9660 0.9660 0.9660 0.9660
3029.733116 0.9660 0.9660 0.9661 0.9671 0.9680
3034.426499 0.9680 0.9680 0.9680 0.9679 0.9669
3039.119881 0.9660 0.9660 0.9660 0.9660 0.9660
3043.813264 0.9660 0.9660 0.9660 0.9660 0.9660
3048.506647 0.9660 0.9660 0.9660 0.9660 0.9660
3053.200030 0.9660 0.9661 0.9671 0.9680 0.9680
3057.893412 0.9680 0.9680 0.9680 0.9680 0.9680
3062.586795 0.9680 0.9680 0.9680 0.9680 0.9680
3067.280178 0.9680 0.9680 0.9680 0.9680 0.9680
3071.973560 0.9680 0.9680 0.9680 0.9680 0.9685
3076.666943 0.9690 0.9690 0.9690 0.9690 0.9690
3081.360326 0.9690 0.9690 0.9690 0.9690 0.9690
3086.053709 0.9690 0.9690 0.9690 0.9685 0.9680
3090.747091 0.9680 0.9680 0.9680 0.9680 0.9680
3095.440474 0.9680 0.9680 0.9680 0.9680 0.9680
3100.133857 0.9680 0.9680 0.9670 0.9660 0.9660
3104.827240 0.9660 0.9670 0.9680 0.9680 0.9680
3109.520622 0.9680 0.9680 0.9680 0.9680 0.9680
3114.214005 0.9680 0.9680 0.9680 0.9685 0.9690
3118.907388 0.9690 0.9690 0.9690 0.9690 0.9690
3123.600770 0.9690 0.9700 0.9710 0.9710 0.9710
3128.294153 0.9710 0.9710 0.9700 0.9690 0.9690
3132.987536 0.9690 0.9690 0.9690 0.9685 0.9680
3137.680919 0.9685 0.9690 0.9690 0.9690 0.9690
3142.374301 0.9690 0.9690 0.9690 0.9700 0.9710
3147.067684 0.9710 0.9710 0.9710 0.9710 0.9710
3151.761067 0.9710 0.9710 0.9710 0.9710 0.9710
3156.454450 0.9710 0.9710 0.9710 0.9710 0.9710
3161.147832 0.9710 0.9710 0.9710 0.9710 0.9710
3165.841215 0.9710 0.9710 0.9710 0.9710 0.9710
3170.534598 0.9710 0.9710 0.9710 0.9710 0.9710
3175.227980 0.9700 0.9690 0.9690 0.9690 0.9690
3179.921363 0.9690 0.9690 0.9690 0.9690 0.9690
3184.614746 0.9685 0.9680 0.9680 0.9680 0.9680
3189.308129 0.9680 0.9680 0.9680 0.9680 0.9680
3194.001511 0.9652 0.9622 0.9620 0.9620 0.9615
3198.694894 0.9610 0.9601 0.9591 0.9576 0.9561
3203.388277 0.9546 0.9531 0.9525 0.9520 0.9511
3208.081659 0.9501 0.9481 0.9461 0.9428 0.9393
3212.775042 0.9358 0.9323 0.9306 0.9291 0.9249
3217.468425 0.9204 0.9182 0.9162 0.9073 0.8977
3222.161808 0.8938 0.8903 0.8854 0.8804 0.8777
3226.855190 0.8752 0.8718 0.8683 0.8544 0.8394
3231.548573 0.8231 0.8066 0.8023 0.7993 0.7972
3236.241956 0.7952 0.7847 0.7733 0.7698 0.7672
3240.935339 0.7584 0.7489 0.7299 0.7100 0.7040
3245.628721 0.6995 0.6954 0.6914 0.6763 0.6598
3250.322104 0.6416 0.6231 0.6064 0.5899 0.5845
3255.015487 0.5805 0.5747 0.5688 0.5636 0.5586
3259.708869 0.5540 0.5495 0.5446 0.5396 0.5364
3264.402252 0.5334 0.5321 0.5311 0.5314 0.5319
3269.095635 0.5346 0.5376 0.5397 0.5417 0.5549
3273.789018 0.5699 0.5729 0.5739 0.5766 0.5796
3278.482400 0.5844 0.5894 0.6004 0.6124 0.6274
3283.175783 0.6429 0.6682 0.6952 0.6969 0.6944
3287.869166 0.6786 0.6607 0.6512 0.6432 0.6378
3292.562549 0.6328 0.6312 0.6302 0.6300 0.6300
3297.255931 0.6394 0.6504 0.6520 0.6520 0.6215
3301.949314 0.5855 0.5623 0.5413 0.5296 0.5196
3306.642697 0.5159 0.5134 0.5101 0.5066 0.5056
3311.336079 0.5051 0.5054 0.5059 0.5097 0.5143
3316.029462 0.5179 0.5214 0.5266 0.5321 0.5342
3320.722845 0.5357 0.5505 0.5680 0.5912 0.6157
3325.416228 0.6241 0.6291 0.6353 0.6418 0.6507
3330.109610 0.6602 0.6754 0.6918 0.7080 0.7242
3334.802993 0.7513 0.7807 0.7872 0.7887 0.7947
3339.496376 0.8017 0.8144 0.8283 0.8391 0.8491
3344.189759 0.8590 0.8690 0.8722 0.8737 0.8796
3348.883141 0.8866 0.8928 0.8987 0.9088 0.9199
3353.576524 0.9301 0.9400 0.9460 0.9510 0.9524
3358.269907 0.9529 0.9550 0.9575 0.9600 0.9625
3362.963289 0.9654 0.9684 0.9690 0.9690 0.9702
3367.656672 0.9717 0.9732 0.9747 0.9754 0.9759
3372.350055 0.9760 0.9760 0.9760 0.9760 0.9760
3377.043438 0.9760 0.9768 0.9778 0.9780 0.9780
3381.736820 0.9780 0.9780 0.9780 0.9780 0.9780
3386.430203 0.9780 0.9780 0.9780 0.9780 0.9780
3391.123586 0.9780 0.9780 0.9780 0.9780 0.9780
3395.816968 0.9780 0.9780 0.9780 0.9780 0.9780
3400.510351 0.9772 0.9762 0.9760 0.9760 0.9760
3405.203734 0.9760 0.9760 0.9760 0.9760 0.9760
3409.897117 0.9756 0.9751 0.9750 0.9750 0.9754
3414.590499 0.9759 0.9767 0.9777 0.9780 0.9780
3419.283882 0.9780 0.9780 0.9780 0.9780 0.9780
3423.977265 0.9780 0.9780 0.9780 0.9780 0.9780
3428.670648 0.9784 0.9789 0.9786 0.9781 0.9780
3433.364030 0.9780 0.9780 0.9780 0.9780 0.9780
3438.057413 0.9784 0.9789 0.9790 0.9790 0.9786
3442.750796 0.9781 0.9780 0.9780 0.9780 0.9780
3447.444178 0.9780 0.9780 0.9780 0.9780 0.9780
3452.137561 0.9780 0.9780 0.9780 0.9773 0.9763
3456.830944 0.9760 0.9760 0.9760 0.9760 0.9760
3461.524327 0.9760 0.9760 0.9760 0.9760 0.9760
3466.217709 0.9760 0.9760 0.9760 0.9760 0.9760
3470.911092 0.9760 0.9767 0.9777 0.9780 0.9780
3475.604475 0.9780 0.9780 0.9780 0.9780 0.9780
3480.297858 0.9780 0.9790 0.9805 0.9810 0.9810
3484.991240 0.9810 0.9810 0.9810 0.9810 0.9810
3489.684623 0.9810 0.9813 0.9818 0.9820 0.9820
3494.378006 0.9820 0.9820 0.9820 0.9820 0.9820
3499.071388 0.9820 0.9827 0.9837 0.9840 0.9840
3503.764771 0.9833 0.9823 0.9820 0.9820 0.9820
3508.458154 0.9820 0.9820 0.9820 0.9820 0.9820
3513.151537 0.9827 0.9837 0.9840 0.9840 0.9840
3517.844919 0.9840 0.9840 0.9840 0.9840 0.9840
3522.538302 0.9833 0.9823 0.9820 0.9820 0.9826
3527.231685 0.9836 0.9840 0.9840 0.9843 0.9848
3531.925067 0.9850 0.9850 0.9850 0.9850 0.9850
3536.618450 0.9850 0.9850 0.9850 0.9850 0.9850
3541.311833 0.9850 0.9850 0.9850 0.9850 0.9850
3546.005216 0.9850 0.9850 0.9850 0.9850 0.9850
3550.698598 0.9850 0.9850 0.9850 0.9850 0.9856
3555.391981 0.9866 0.9870 0.9870 0.9870 0.9870
3560.085364 0.9873 0.9878 0.9871 0.9856 0.9850
3564.778747 0.9850 0.9850 0.9850 0.9850 0.9850
3569.472129 0.9850 0.9850 0.9850 0.9850 0.9856
3574.165512 0.9866 0.9870 0.9870 0.9873 0.9878
3578.858895 0.9880 0.9880 0.9883 0.9888 0.9890
3583.552277 0.9890 0.9884 0.9874 0.9870 0.9870
3588.245660 0.9864 0.9854 0.9850 0.9850 0.9850
3592.939043 0.9850 0.9850 0.9850 0.9856 0.9866
3597.632426 0.9873 0.9878 0.9889 0.9904 0.9904
3602.325808 0.9894 0.9890 0.9890 0.9890 0.9890
3607.019191 0.9890 0.9890 0.9890 0.9890 0.9890
3611.712574 0.9890 0.9890 0.9890 0.9890 0.9890
3616.405957 0.9890 0.9890 0.9904 0.9929 0.9940
3621.099339 0.9940 0.9926 0.9901 0.9884 0.9874
3625.792722 0.9864 0.9854 0.9850 0.9850 0.9850
3630.486105 0.9850 0.9855 0.9865 0.9870 0.9870
3635.179487 0.9873 0.9878 0.9916 0.9981 1.0010
3639.872870 1.0010 0.9994 0.9964 0.9931 0.9896
3644.566253 0.9877 0.9872 0.9870 0.9870 0.9865
3649.259636 0.9855 0.9842 0.9827 0.9820 0.9820
3653.953018 0.9820 0.9820 0.9825 0.9835 0.9848
3658.646401 0.9863 0.9907 0.9977 1.0007 1.0002
3663.339784 0.9995 0.9985 0.9980 0.9980 0.9970
3668.033167 0.9950 0.9925 0.9895 0.9865 0.9834
3672.726549 0.9820 0.9820 0.9825 0.9835 0.9843
3677.419932 0.9848 0.9868 0.9903 0.9920 0.9920
3682.113315 0.9900 0.9860 0.9820 0.9780 0.9758
3686.806697 0.9753 0.9752 0.9757 0.9765 0.9775
3691.500080 0.9788 0.9803 0.9818 0.9833 0.9840
3696.193463 0.9840 0.9842 0.9847 0.9850 0.9850
3700.886846 0.9850 0.9850 0.9850 0.9850 0.9848
3705.580228 0.9843 0.9840 0.9840 0.9835 0.9825
3710.273611 0.9820 0.9820 0.9844 0.9894 0.9823
3714.966994 0.9624 0.9520 0.9520 0.9544 0.9594
3719.660376 0.9691 0.9841 0.9927 0.9942 0.9957
3724.353759 0.9972 0.9980 0.9980 0.9964 0.9929
3729.047142 0.9931 0.9976 1.0000 1.0000 0.9995
3733.740525 0.9985 0.9980 0.9980 0.9985 0.9995
3738.433907 1.0000 1.0000 0.9986 0.9957 0.9924
3743.127290 0.9889 0.9870 0.9870 0.9866 0.9855
3747.820673 0.9843 0.9828 0.9813 0.9798 0.9801
3752.514056 0.9826 0.9842 0.9847 0.9850 0.9850
3757.207438 0.9848 0.9843 0.9840 0.9840 0.9823
3761.900821 0.9783 0.9760 0.9760 0.9773 0.9803
3766.594204 0.9820 0.9820 0.9818 0.9813 0.9810
3771.287586 0.9810 0.9810 0.9810 0.9806 0.9796
3775.980969 0.9790 0.9790 0.9794 0.9804 0.9810
3780.674352 0.9810 0.9812 0.9817 0.9826 0.9841
3785.367735 0.9854 0.9864 0.9874 0.9884
##END=
